 # Version information for this restart file 
 # current date 2024-11-21 20:43:08.852
 # current working dir /scratch/fh2268/comp-lab-class-2024/Week12-IntroAIMD/Runs/Water
 # Program compiled at                              Sat Dec 12 18:27:15 EST 2020
 # Program compiled on                                         cs001.nyu.cluster
 # Program compiled for                                                nyu-intel
 # Source code revision number                                       git:8c64c6e
 &GLOBAL
   PRINT_LEVEL  LOW
   PROJECT_NAME WATER_SIMULATION
   RUN_TYPE  MD
   WALLTIME 21600
 &END GLOBAL
 &MOTION
   &GEO_OPT
     OPTIMIZER  BFGS
     MAX_ITER  100
     MAX_DR     3.0000000000000001E-03
     &BFGS
     &END BFGS
   &END GEO_OPT
   &MD
     ENSEMBLE  NVT
     STEPS  2000
     TIMESTEP     4.9999999999999994E-01
     STEP_START_VAL  176
     TIME_START_VAL     8.8000000000000071E+01
     ECONS_START_VAL    -1.1023558357480229E+03
     TEMPERATURE     3.0000000000000000E+02
     &THERMOSTAT
       TYPE  GLE
       REGION  MASSIVE
       &GLE
         NDIM  5
         A_SCALE     1.0000000000000000E+00
         A_LIST     1.8595758612559999E+02    2.7263853498399998E-01    1.1526100454610001E+01   -3.6414578262600003E+01 \
             2.3173375816020001E+02
         A_LIST    -2.7809524712060002E-01    8.5951591808710006E-05    7.2189048017650004E-01   -1.9844539343859999E-01 \
             4.2409257583420001E-01
         A_LIST    -1.4825808131210000E+01   -7.2189048017650004E-01    1.3590902121280000E+00    5.1498896280349999E+00 \
            -9.9949268450990001E+00
         A_LIST    -1.0372189126880000E+01    1.9844539343859999E-01   -5.1498896280349999E+00    2.6661910891169999E+01 \
             1.1507715495310000E+01
         A_LIST     2.1801346360420001E+02   -4.2409257583420001E-01    9.9949268450990001E+00   -1.1507715495310000E+01 \
             3.0958394565589998E+02
         &THERMOSTAT_ENERGY
              -3.1665209570637906E-03
               2.6423997231638271E-03
              -8.1258847013953862E-05
              -2.4181708654874693E-03
              -1.1489403276879794E-03
               2.6674415292729146E-03
              -3.1395174815197617E-03
               6.4649542365194639E-04
               3.7905489727047817E-03
              -6.5291557824817786E-04
               3.4357280396161969E-03
               7.1066805180695783E-04
               3.9549135210459148E-03
              -1.7506519351762710E-03
              -5.6513287098012145E-04
              -2.9622770801029288E-03
               3.2354816082799894E-03
              -1.6493957392659407E-03
               2.4691613509092523E-03
              -1.4654281813954028E-03
              -3.6426279206732483E-04
               4.4995004199468704E-04
               1.3446828527800977E-04
               1.6749531970718361E-03
              -4.3017492002581318E-03
              -2.2794067192784609E-03
               2.6229164128208958E-03
               1.2395924627165900E-03
               4.7575674488216303E-04
               2.4168924287937599E-04
              -7.9763717271139338E-04
              -2.3486088128081770E-03
               8.2401171539448858E-04
               1.2585794655961553E-03
              -1.9648206773798089E-03
               2.3906406155090247E-03
              -4.6863450807153374E-04
               2.1252635497533877E-04
              -9.4396179158377411E-04
               6.3955675236192862E-04
              -3.3980468663535011E-04
              -3.1069641979237055E-03
              -1.1673375235797913E-03
               2.8582642722489245E-03
              -2.4553401471317836E-03
               1.5531604839790609E-03
              -1.1804707881553295E-03
              -1.2601421729681488E-04
              -9.2484976168484513E-04
              -4.3629895618533783E-04
               2.0645210188036411E-03
              -4.5254993386592915E-04
              -1.9004328252683609E-03
               2.9355586008975894E-04
              -2.6324062853288494E-03
              -8.7946495384504759E-04
              -1.0779124686441544E-03
               1.7379559560951423E-03
               2.6749268801952424E-03
              -1.9686277003223905E-03
               9.6570840414210695E-05
               3.3643282662614441E-03
              -1.5625399151205800E-03
              -2.8353320216156861E-04
              -9.3179946249468868E-04
               1.1789448593631691E-03
              -4.0742802062736306E-03
               2.3641730862966909E-03
              -1.6301329467353859E-03
               1.2968799817950011E-03
               1.7559213187844491E-03
               1.0864973197185140E-04
              -1.8848210410150291E-03
               9.1793146929234194E-04
              -6.6229700771261956E-04
              -1.9647350797750377E-03
               1.4458613824114687E-04
               2.1377954724525272E-03
               5.4554117118650802E-03
              -1.8220645469480083E-03
               8.9782925706767774E-04
              -4.8195057800965520E-05
              -1.4225091117369706E-03
              -1.2585635162418854E-04
               3.3894276402969175E-03
               1.0234400681600834E-04
               1.6548433742708379E-03
               1.6176761619812814E-03
               4.1307853528232226E-06
              -1.5193691746149532E-03
               2.6558084740310132E-03
              -3.3148613682316757E-03
               1.3928333555922278E-03
              -2.8650734552702862E-05
              -4.1283602679576068E-03
               6.8506280318216613E-04
               3.8803854639647532E-05
               8.5337221889443841E-04
               2.3541576172396231E-03
               1.4642316854915616E-03
              -8.5154522269894261E-06
              -1.7248502245312864E-03
               6.1844228655290163E-05
               8.1375831010691978E-04
               4.8382675984828634E-03
              -2.4905000154271462E-03
               5.8691784252028884E-04
              -2.4020538038431465E-03
               3.3278294961750473E-03
              -1.5680985369257897E-04
               5.3622298435732291E-03
               4.1784642649608274E-04
               3.7696684194491110E-04
              -1.1318898389031736E-03
              -6.3221249931728852E-04
               2.5139715430485309E-03
              -9.0979018244641933E-03
               1.7281087956174165E-03
               4.4328193536312974E-04
               6.9351913432810926E-04
              -9.4448930459393532E-04
              -1.1220142612842126E-04
               3.5764271674864128E-03
              -9.3606135212757598E-04
              -3.9498419215112743E-03
               7.7255807796509598E-04
              -2.1273102735541575E-05
               4.4731596875239492E-03
              -4.5516662283391239E-04
               2.0469597448537027E-03
              -1.8463629387339463E-03
              -2.1773494366797846E-03
               7.5857821107302536E-04
              -2.2950086335070631E-03
              -1.2999519419376248E-03
              -1.0790021695774301E-03
              -2.3555088163271926E-03
              -1.5977588721775970E-03
               8.3146542327310155E-04
               1.2935524871332412E-03
               2.9753006631505971E-03
               1.8673186542462403E-03
               7.8409753864542957E-04
              -2.2620555771130893E-04
              -1.7385718392714882E-03
               9.5167807211796749E-04
               1.4109401883153144E-03
              -2.0043910866555822E-04
              -2.9278456585476436E-03
               3.0847691411259996E-03
               6.2884423423671492E-04
               1.7091383678936528E-03
              -1.8481015618306410E-03
              -2.6564589820726156E-04
               1.1276644689673300E-03
               5.0219114566141948E-06
               2.0073529235107783E-03
              -3.0790447276907303E-04
              -1.3377545541063001E-03
               8.5529928348547241E-04
              -2.5433945933938085E-03
              -3.1652301646457586E-03
              -5.6258750882068602E-04
              -1.8450624660160266E-04
               1.8985140913883251E-03
               3.0759558542138759E-03
               3.7293001730221440E-03
              -4.0468467019213588E-04
              -5.3875541210744197E-03
               3.8366230043401610E-04
               5.6393264400571091E-04
              -5.4896773829304804E-04
               7.7386208351951731E-04
              -2.7224519779833420E-04
              -3.4831651923004540E-04
              -1.8044965630492874E-03
               1.3058946205464110E-04
               3.2182586709037647E-03
              -5.8161864693216214E-04
               2.5407511847294283E-03
               9.2964289960236564E-04
              -1.3923443185201671E-03
               1.0585971823449418E-03
               6.4507983071681143E-04
              -9.7602038164919247E-04
               6.9475911171424081E-04
              -1.7126849556773182E-03
               3.2800235501206378E-04
              -9.5284047788884952E-04
               3.3554967974767350E-04
               1.1757186979542958E-03
              -4.3567692988350534E-04
               3.3419743257284296E-03
              -3.2201938084515580E-03
               6.0533130171284033E-04
              -2.0709163650413334E-03
              -6.5420238790647950E-04
              -9.9369119764158354E-04
              -9.8773399106679127E-05
              -1.7346972917977512E-03
               8.7278548862838130E-04
              -3.7207265097092689E-04
               1.3452700553988526E-03
               1.5790332525321736E-03
              -3.4962640697121582E-03
               1.1349504039280599E-03
              -4.9323474523225498E-04
               1.1560183816771560E-03
              -1.3347790763576376E-03
               4.0463065353009151E-03
              -1.0756865484958667E-03
              -8.9301605704184776E-04
               1.9759169083881714E-03
              -3.9436214140690712E-03
               3.3639477442318263E-03
               4.3022667845176521E-03
               8.4056345075820779E-04
               1.1107553486322237E-03
              -1.5797230425860149E-03
              -2.0467037776416225E-03
               3.1397758993236299E-03
              -7.2577865431035595E-04
               1.8554507221425439E-03
               2.7339370299060543E-05
              -2.7855642231971798E-03
               6.2747350214521140E-04
               2.8142515933791322E-04
               1.2203566918859497E-03
              -1.4917828943902486E-03
               4.2873450678305083E-03
              -1.1564551327204122E-03
               2.4182173230755787E-03
               8.0076372483464480E-04
               1.2245371768556822E-04
               2.7093440463549358E-03
               5.6704817405355359E-04
              -2.4496971809112086E-03
               1.4186731897273949E-03
              -1.1904893725424534E-03
              -3.9416315402062368E-04
               7.5440277114647788E-04
               1.1697905588752529E-03
               1.6419886173850420E-03
               1.2520678617654445E-03
               1.0226842620137868E-03
               5.1376230029684454E-04
              -9.7213877341264165E-04
               6.5028060829594512E-04
               1.5532261757138257E-04
              -2.4919955824280150E-03
              -1.1614374340006058E-03
               2.8170372628080692E-03
               2.5042152335150467E-05
              -2.1730668083289845E-04
              -1.7397145712268894E-03
               4.1333715270247637E-04
              -3.8495193352587830E-03
              -2.8641902700305745E-04
               7.3510718835259723E-04
              -1.9767126580928765E-03
               4.6676558166443673E-03
               2.3600042745998990E-03
               1.9802270867383788E-03
               1.7840790287299985E-03
              -1.0447371362503797E-03
              -7.3367722325817493E-04
              -2.4677789748628386E-05
              -4.7549625816827626E-04
              -7.1584456204170754E-04
              -2.3262686689400074E-03
              -5.5983083666491735E-04
              -2.4567503770539538E-03
               1.2521885701583702E-03
              -2.5773675282287538E-03
               1.7224529918829937E-03
               1.9493246838193309E-03
              -6.2578702458199022E-03
              -4.0400258633295125E-04
               1.2229650906372585E-03
               1.6357352628664674E-03
              -8.0757818847570953E-05
              -8.7563688301654243E-04
               2.9339454594650822E-03
              -1.9896140344199346E-04
              -5.3048289843589721E-03
               1.3389803771461373E-03
              -3.6157677003987947E-03
              -1.2645401634286783E-03
              -8.5697096778918676E-04
               3.0768064896547799E-04
               1.7580918027259652E-04
               3.6098186622291833E-03
              -2.0401608374215644E-03
              -1.0387240296659704E-03
               1.3947181358837566E-03
               1.7313980391318465E-03
              -1.3256435053291995E-03
              -1.1818753425611472E-03
              -2.6339827969465001E-03
              -4.9728171570846135E-05
               2.1824974510110677E-03
               7.4387440519125181E-04
              -4.4274662505514647E-03
               1.1092977802787491E-03
               4.3908602800412965E-03
              -1.7231481471431343E-03
              -8.9174728846189134E-04
               3.2922674411320558E-04
              -1.4628796075639187E-03
               1.7526905721679665E-03
               1.4389174390264743E-04
              -4.4769678179954154E-03
               2.2157920440142127E-03
               2.3961926562565575E-03
              -8.4461561315554040E-04
               1.6714187675969871E-03
               8.2182753490144781E-04
               4.6796520721865053E-03
               5.3038099294624649E-04
              -3.1380229461106177E-03
               1.7622541210698950E-03
              -3.4837756136121326E-03
              -4.3907755673404918E-03
               2.7074771858050153E-03
              -3.5891333937468914E-04
               1.6131650221227157E-03
               2.8343909349173168E-04
               1.7137714981593061E-03
              -2.2343505681459390E-04
              -1.4379517014082984E-03
              -1.8332602051737373E-03
              -6.1570796069408641E-04
               6.1028191118636329E-04
               6.1668953765564116E-04
               9.4405218299761025E-04
               1.0792762202945183E-04
               7.7308884632147591E-04
               2.7507859565692235E-03
              -3.7653111069568096E-04
              -1.8537624823252814E-03
              -1.7866592292265469E-04
               8.3626502595223915E-04
               2.9066256623826274E-03
               1.5074627971818657E-03
              -3.3071343543944123E-04
              -4.9219955689969923E-04
              -8.4377716790823721E-04
              -1.4528168876019093E-03
              -3.6781877959445129E-04
              -2.8665817904716504E-03
              -9.5405202356203052E-04
               1.2115563895337233E-03
              -2.6290510871989112E-03
               8.0712841371711596E-06
              -2.1931853383894153E-03
               6.1007827115872797E-04
               2.2207474714647001E-03
               1.2095487181192115E-04
              -8.6879359649744668E-04
               5.8510726601114843E-03
               1.6437955059961953E-04
              -1.6986529706800290E-04
              -1.7417145634612629E-04
              -1.8805300684371445E-03
               8.7319752544768648E-04
              -1.0147832797298795E-03
               1.9639312409890628E-03
               1.2744126525138296E-03
               9.4897243546462906E-04
              -1.5499768160087880E-04
               2.6012980321506781E-03
              -4.3159027373256744E-03
               3.4401832457046479E-03
              -1.3006979341839936E-03
              -1.9141552523971668E-03
              -3.2300749010258046E-03
               1.2647945200036366E-03
               2.8190963365288084E-03
               1.6363542417648894E-03
               8.6962403939108755E-04
               1.8605998285868709E-03
               3.0703886499470791E-03
               1.6742917313486688E-03
              -6.5178474518977412E-04
              -8.7967017914965997E-03
               1.3711290499318703E-03
               5.9453628281013393E-04
              -4.3412070257563568E-03
              -5.1752583904909888E-04
               7.6827692661842731E-04
               1.9757630537744347E-03
              -2.1696977461727650E-03
              -1.6360009711897364E-04
              -3.5432407332043305E-04
              -4.4192825496257894E-03
              -1.2765208837498226E-03
              -2.4643563443023562E-03
               1.8672540390540795E-03
              -8.9335181280416058E-04
              -2.3662965934072898E-03
              -5.6709068421363909E-03
               3.9244539178930372E-03
               1.0578339760367603E-03
              -2.5862677274492945E-03
               2.7247402731896356E-03
               1.4500459243352038E-04
               4.4762993934314353E-04
               2.0437154388966961E-03
              -2.5994693401660426E-03
              -2.8833777189553812E-03
              -4.1962028144450035E-04
              -1.2511466480397268E-03
               9.6986578191862499E-04
               4.5140322725204501E-03
              -3.3990067076784302E-03
              -7.6068083543119668E-04
              -5.4802038504057492E-04
              -2.7952141034966677E-03
              -3.3493230172563365E-03
               7.1524881454152036E-03
              -2.2533961087917268E-04
              -6.0529106755120008E-04
               1.3469032893889106E-03
               2.4679445697169326E-03
              -1.5307097151266184E-03
              -2.3928974813665232E-03
              -1.1152896678003136E-04
              -3.6962739603265131E-03
               4.1748781234644816E-04
              -3.3332142990077999E-04
               1.9458395605130429E-03
              -4.7077564567760515E-03
               1.4246628310193559E-03
               5.3132093551031727E-04
               1.3377313143314484E-03
              -3.9480217781773371E-03
              -1.4804739631637770E-03
               6.8557091929186739E-04
               4.5635163016258832E-03
               2.4318309631148078E-03
              -6.9446283045449453E-03
              -1.1980657739671808E-03
              -2.6603233571684988E-03
               1.7228319704910588E-03
               6.8875869960021243E-04
               3.3569141545898543E-03
              -2.1072703096379280E-04
              -3.3971136853754207E-03
               6.0378236548912299E-04
              -3.6233938588383697E-04
              -1.8217891806778484E-03
              -2.0137851229964552E-03
               8.4471784782910459E-04
               2.2101213865809012E-03
              -3.0314444113206315E-03
               4.0339082461348909E-04
               7.5489020260588666E-03
              -6.4196324952800081E-05
              -3.5726683000719813E-03
              -4.1347307132462972E-04
               2.3041021942622579E-03
              -4.3793125871817646E-04
              -5.0721184566167223E-04
              -2.1810938859726250E-03
               1.5795837277311285E-03
              -1.1620394086709603E-03
              -1.7967932904399044E-03
              -1.3629690739118442E-03
               9.2946384069066850E-04
               7.7101390144101783E-04
              -7.7444617311053809E-05
               1.4843822740179665E-03
              -1.3378558843983282E-03
               2.0256530939771495E-03
               2.8783894796928657E-04
               3.2546818991943259E-03
               1.7915814827220370E-03
              -8.4022216978464517E-04
              -3.9477901386042517E-04
               2.7320475550757016E-03
               5.7558286567932588E-03
              -4.9588941528082299E-05
              -1.7568648935985236E-03
               5.8486286330386732E-04
              -1.7859203788605073E-04
              -1.1384047293581550E-03
               1.0407604056577627E-04
              -1.5705705861125470E-03
              -4.8795795094953848E-04
               3.2530682881972420E-04
              -7.2736445472229648E-04
               1.0770192610010396E-03
              -1.6607853959133576E-03
               1.4051111001386297E-03
               3.9867016825322170E-03
               1.4520657552882102E-03
              -1.0290987665671528E-03
              -1.0478045731099463E-03
              -7.4863885160649535E-05
              -3.5582022041391872E-03
               2.8876586203112190E-03
              -1.2567453421092540E-03
               2.0447158857850754E-03
              -3.9678402485589150E-03
               5.3253351857236774E-04
              -1.7588671902010612E-03
               1.2304397297604043E-03
               7.2654839432935176E-05
               1.8217979065149306E-03
              -8.1245301465196376E-04
               6.5067129064025309E-04
               5.6219518166155313E-03
              -5.1505128251070438E-03
               2.6533017881220022E-04
               4.8943045779517840E-04
               9.0638819356202377E-04
               2.5725488188589191E-03
              -2.8038178648502016E-03
               5.3271770687743109E-04
              -7.1476223888500962E-04
               5.5887849587196335E-04
              -5.5464148010823163E-03
               1.0524229168653399E-03
               4.8611976400455344E-04
               1.2634747756861810E-03
              -4.8756324774071249E-04
               8.5272514287741664E-04
              -1.5298572351443015E-03
               3.0203771911061213E-03
               8.2569207512492890E-04
              -1.4065706138558180E-03
              -7.9867176583537866E-04
              -1.0236896945444595E-04
               2.8029732040797792E-04
               1.5494745642325664E-03
              -3.8051123457690191E-03
               9.4007835806032944E-04
               7.3013154278125036E-04
              -2.1850479622946761E-03
               4.8435263988125769E-04
              -3.7664924721293231E-04
               1.9501909023365158E-04
               2.4329124932352527E-03
               1.1420105075510944E-03
              -7.3298010224579001E-04
              -7.2594914953387924E-04
              -2.3600515662911647E-03
               1.1573137402496627E-03
              -1.3212046959439356E-03
              -1.4785979230473980E-04
              -2.5745496701815810E-03
              -1.2290559419714164E-03
              -3.2023901768910663E-04
              -2.3143793069596050E-03
               3.3328480406096326E-03
              -2.6785979496191455E-03
               2.9623502328121700E-03
               2.2803144897358902E-03
               4.3818519638339605E-03
               7.4064272844692248E-05
              -4.1867179299502540E-04
              -2.8070620869711212E-03
              -3.7618690757339436E-03
               3.9962679447398224E-03
               2.6431584141108047E-03
               2.5488818791812467E-03
              -3.7751596279131483E-03
               8.2197785557699943E-04
               3.6902158850848671E-04
              -1.9213367681491528E-03
              -2.4299069462810478E-03
               2.5480861003440835E-03
               1.2488433761494949E-03
               5.4206929776305177E-03
              -3.1912599980864842E-03
              -8.8242576876439540E-04
         &END THERMOSTAT_ENERGY
         &RNG_INIT
Wiener process for Thermostat # 1        1 F T T  -1.3624789226471878E+00        1777311595.0         477324794.0        1246425833.0        3069584264.0        3164669503.0         158500179.0             12345.0             12345.0             12345.0             12345.0             12345.0             12345.0             12345.0             12345.0             12345.0             12345.0             12345.0             12345.0
Wiener process for Thermostat # 2        1 F T T   1.0406357283954268E+00        2070017250.0         846826929.0        2589942704.0         580850622.0        2194778609.0        1069355420.0        3692455944.0        1366884236.0        2968912127.0         335948734.0        4161675175.0         475798818.0        3692455944.0        1366884236.0        2968912127.0         335948734.0        4161675175.0         475798818.0
Wiener process for Thermostat # 3        1 F T T   6.8825553155293995E-01        2576622388.0        3963568231.0          42058069.0        2061616484.0         636609410.0         803719865.0        1015873554.0        1310354410.0        2249465273.0         994084013.0        2912484720.0        3876682925.0        1015873554.0        1310354410.0        2249465273.0         994084013.0        2912484720.0        3876682925.0
Wiener process for Thermostat # 4        1 F T T  -4.9102902244035213E-01        1304671854.0         618035588.0        3781101197.0        3190763963.0         466493143.0         704217311.0        2338701263.0        1119171942.0        2570676563.0         317077452.0        3194180850.0         618832124.0        2338701263.0        1119171942.0        2570676563.0         317077452.0        3194180850.0         618832124.0
Wiener process for Thermostat # 5        1 F T T  -1.5542253749314976E+00        1026698569.0        4097337306.0        1592121644.0        2206127022.0        2716577769.0        1658483868.0        1597262096.0        3906379055.0        3312112953.0        1016013135.0        4099474108.0         275305423.0        1597262096.0        3906379055.0        3312112953.0        1016013135.0        4099474108.0         275305423.0
Wiener process for Thermostat # 6        1 F T T  -1.5111926055054559E-01        1986889355.0        2592073203.0        1088111417.0         365924292.0         476353750.0        1471763125.0          97147054.0        3131372450.0         829345164.0        3691032523.0        3006063034.0        4259826321.0          97147054.0        3131372450.0         829345164.0        3691032523.0        3006063034.0        4259826321.0
Wiener process for Thermostat # 7        1 F T T   1.6000677760543872E-01         297080327.0        2892781286.0        3719719497.0        1311225811.0         563312490.0        1826203715.0         796079799.0        2105258207.0         955365076.0        2923159030.0        4116632677.0        3067683584.0         796079799.0        2105258207.0         955365076.0        2923159030.0        4116632677.0        3067683584.0
Wiener process for Thermostat # 8        1 F T T  -1.8620025004813852E+00        3428594754.0        3587857695.0        3355934839.0        3783795206.0        1589447855.0        3928178788.0        3281794178.0        2616230133.0        1457051261.0        2762791137.0        2480527362.0        2282316169.0        3281794178.0        2616230133.0        1457051261.0        2762791137.0        2480527362.0        2282316169.0
Wiener process for Thermostat # 9        1 F T T  -1.4845776004189861E+00        3988535896.0         278987610.0        2360133228.0         701951070.0        3523186731.0        2072470545.0        3777646647.0        1837464056.0        4204654757.0         664239048.0        4190510072.0        2959195122.0        3777646647.0        1837464056.0        4204654757.0         664239048.0        4190510072.0        2959195122.0
Wiener process for Thermostat # 10       1 F T T  -1.3104136563850058E-01        2425331896.0         747525581.0        3481429669.0        2642581847.0        3347232075.0        2541219727.0        4215590817.0        3862461878.0        1087200967.0        1544910132.0         936383720.0        1611370123.0        4215590817.0        3862461878.0        1087200967.0        1544910132.0         936383720.0        1611370123.0
Wiener process for Thermostat # 11       1 F T T   7.1594119650212829E-01         300557650.0        1294747095.0         709005651.0        2380625166.0        2698345015.0        1129509781.0        1683636369.0         362165168.0         814316280.0         869382050.0         980203903.0        2062101717.0        1683636369.0         362165168.0         814316280.0         869382050.0         980203903.0        2062101717.0
Wiener process for Thermostat # 12       1 F T T   4.7513761510223701E-01        3694559698.0        2320157827.0        2382928686.0        3279191006.0        2445974928.0        2693215320.0         272317999.0         166758548.0         310112982.0         201045826.0        1680231254.0         118290799.0         272317999.0         166758548.0         310112982.0         201045826.0        1680231254.0         118290799.0
Wiener process for Thermostat # 13       1 F T T  -1.3446190957300665E+00        4206700179.0        3394969479.0         157568513.0        3245428286.0        2163014181.0        3893885830.0        2245755202.0        1652682525.0        2865544364.0         721509566.0         209733568.0         592362218.0        2245755202.0        1652682525.0        2865544364.0         721509566.0         209733568.0         592362218.0
Wiener process for Thermostat # 14       1 F T T  -9.0952460944591884E-01        1869920219.0          66475429.0         348345405.0         555934479.0        3942608413.0        2654579882.0        3003961408.0        3529909391.0          14538032.0        3603919910.0         566682685.0        1235016484.0        3003961408.0        3529909391.0          14538032.0        3603919910.0         566682685.0        1235016484.0