 # Version information for this restart file 
 # current date 2024-11-21 20:44:19.182
 # current working dir /scratch/fh2268/comp-lab-class-2024/Week12-IntroAIMD/Runs/Water
 # Program compiled at                              Sat Dec 12 18:27:15 EST 2020
 # Program compiled on                                         cs001.nyu.cluster
 # Program compiled for                                                nyu-intel
 # Source code revision number                                       git:8c64c6e
 &GLOBAL
   PRINT_LEVEL  LOW
   PROJECT_NAME WATER_SIMULATION
   RUN_TYPE  MD
   WALLTIME 21600
 &END GLOBAL
 &MOTION
   &GEO_OPT
     OPTIMIZER  BFGS
     MAX_ITER  100
     MAX_DR     3.0000000000000001E-03
     &BFGS
     &END BFGS
   &END GEO_OPT
   &MD
     ENSEMBLE  NVT
     STEPS  2000
     TIMESTEP     4.9999999999999994E-01
     STEP_START_VAL  177
     TIME_START_VAL     8.8500000000000071E+01
     ECONS_START_VAL    -1.1023558357480229E+03
     TEMPERATURE     3.0000000000000000E+02
     &THERMOSTAT
       TYPE  GLE
       REGION  MASSIVE
       &GLE
         NDIM  5
         A_SCALE     1.0000000000000000E+00
         A_LIST     1.8595758612559999E+02    2.7263853498399998E-01    1.1526100454610001E+01   -3.6414578262600003E+01 \
             2.3173375816020001E+02
         A_LIST    -2.7809524712060002E-01    8.5951591808710006E-05    7.2189048017650004E-01   -1.9844539343859999E-01 \
             4.2409257583420001E-01
         A_LIST    -1.4825808131210000E+01   -7.2189048017650004E-01    1.3590902121280000E+00    5.1498896280349999E+00 \
            -9.9949268450990001E+00
         A_LIST    -1.0372189126880000E+01    1.9844539343859999E-01   -5.1498896280349999E+00    2.6661910891169999E+01 \
             1.1507715495310000E+01
         A_LIST     2.1801346360420001E+02   -4.2409257583420001E-01    9.9949268450990001E+00   -1.1507715495310000E+01 \
             3.0958394565589998E+02
         &THERMOSTAT_ENERGY
              -3.6737997723636289E-03
               2.6981899440048718E-03
              -5.9566142213862125E-05
              -2.5392363956480025E-03
              -1.6030833572640243E-03
               2.5634107027897525E-03
              -3.1481957338275177E-03
               6.7302972184451494E-04
               3.5771112981191132E-03
              -4.4878758142837731E-04
               3.3614234360226916E-03
               7.5236433943650760E-04
               4.0502368615053137E-03
              -1.7820494645169229E-03
               1.7150212864929415E-04
              -2.4701908880893080E-03
               3.9985056868014840E-03
              -1.5772571069518839E-03
               2.4722980275287370E-03
              -1.0786636594184895E-03
              -4.5603913818374623E-04
               5.4868975002341207E-04
               1.4411984406374686E-04
               1.6815527036020750E-03
              -4.5236311658620786E-03
              -2.1444659233952760E-03
               2.5114586888036420E-03
               1.3463776020025001E-03
              -4.3704978942340664E-04
               7.1807672459801641E-05
              -8.8736992048696957E-04
              -2.0977376636294042E-03
               8.5097626620930908E-04
               1.7143980218807108E-03
              -2.8039421647293493E-03
               1.9792936639353694E-03
              -4.6225927584772760E-04
               1.8750791850986518E-04
               4.3662141690260954E-05
               6.3496435451763933E-04
              -4.6624876562509094E-04
              -3.1914100721310511E-03
              -9.1714856856276534E-04
               2.7898476363984641E-03
              -2.2413836429994874E-03
               1.6475859579645855E-03
              -1.2313460653410740E-03
               8.6906755959438532E-06
              -5.8476425735939181E-04
              -4.6830111356461172E-04
               1.8393605344865251E-03
              -4.5936652568739434E-04
              -2.1416997608508090E-03
               2.5352658358803051E-04
              -2.3910820179760010E-03
              -1.0087342370439585E-03
              -2.6869336136439004E-04
               1.3317111999637202E-03
               2.7340725385727929E-03
              -1.8433433068868943E-03
               6.0971615246088523E-04
               5.0335181103581764E-03
              -1.4296901606369989E-03
              -2.4387309865909617E-04
              -9.0975865997172136E-04
               7.2370868959397165E-04
              -3.9578494614818643E-03
               2.4573496465981380E-03
              -1.5340882760112632E-03
               1.7852694201858988E-03
               2.0770737578889118E-03
               5.0187671628787957E-05
              -2.3311338152168823E-03
              -1.7429116479964249E-05
              -4.1986654604025985E-04
              -1.8575023047247056E-03
               2.2457753355535637E-04
               1.9399616706585929E-03
               5.3125722615268026E-03
              -1.4482342279073916E-03
               8.9900403451724834E-04
               1.2409897079126604E-04
              -1.3618039269527816E-03
              -2.5133879157104280E-04
               3.3976140796458201E-03
              -5.0622228108363054E-05
               2.3689116352883458E-03
               1.6780955043438441E-03
               2.3163134366286584E-04
              -1.4035233055330392E-03
               2.7061678149359670E-03
              -3.4174202446130520E-03
               1.3693678864918212E-03
               3.4169725102379376E-05
              -3.2610470918697978E-03
               6.8916910230774290E-04
               8.5490447003589576E-05
               6.6013403972667653E-04
               3.3986390566799751E-03
               1.4831215943911587E-03
              -6.6801232357831326E-05
              -1.4612019526645818E-03
              -6.6498055836010985E-05
               8.3077251998101226E-04
               5.2878154848983658E-03
              -3.2835166845075004E-03
               8.2825546660802800E-04
              -2.2578519276756819E-03
               3.3160366794596544E-03
              -2.5574679335943343E-04
               5.7497787734533791E-03
               5.6380726791907380E-04
               3.8360839022427511E-04
              -8.7480930394267836E-04
              -7.0516896869833633E-04
               1.3785423706833958E-03
              -8.9351585651844742E-03
               1.6953401689685621E-03
               8.0432608603784369E-04
               4.3123684420657172E-04
              -6.0126715760569320E-04
              -1.9065998373732742E-04
               3.5263633037455255E-03
              -7.2656906349480559E-04
              -3.9262076769676392E-03
               7.9088882292093659E-04
               3.6121452196916472E-04
               4.3177898627435284E-03
              -5.5291857604279279E-04
               2.0082892746481340E-03
              -1.9243759402457314E-03
              -2.2444618354117932E-03
               6.8362041753702255E-04
              -2.4404165518936245E-03
              -1.2687713850277049E-03
              -5.2648817703655358E-04
              -3.0075325953305312E-03
              -1.6071203316205590E-03
               1.0737165541113754E-03
               1.1787199250252111E-03
               2.7322410199088062E-03
               2.0791170384865301E-03
               6.7380434360431196E-04
              -8.3713494235324124E-05
              -1.4724954248120905E-03
               8.7175027299554633E-04
               1.4485901638690063E-03
              -2.3172390046887609E-04
              -3.0257571445787288E-03
               2.8362577912301131E-03
               8.0674611208046633E-04
               1.5240098887510185E-03
              -1.8037546220653741E-03
              -3.4576894823303396E-04
               1.0487406223410648E-03
               1.0107161926424123E-05
               2.0267308549876050E-03
              -1.2161843451030097E-03
              -1.3074515646428501E-03
               7.6704814095724728E-04
              -2.2820529361550152E-03
              -3.2112925976481217E-03
              -6.5354805105155285E-04
              -2.5498067822736850E-04
               2.0494544982037725E-03
               3.1791474450855086E-03
               2.6775259557157778E-03
               7.6284028434837480E-04
              -5.5870201780965044E-03
               5.0102380311660226E-04
               3.6009260680813196E-04
              -5.5420323470002728E-04
               1.4678874739971904E-03
              -3.1899020116857318E-04
              -2.3140723857720233E-04
              -2.4052459068433750E-03
               6.1164280471839481E-04
               4.2339537114818755E-03
              -4.7680629118064652E-04
               2.4914966966821384E-03
               9.8470077686436605E-04
              -1.5010269115352292E-03
               1.4793585595220995E-03
               6.5050621011523480E-04
              -4.3075712236912171E-04
               6.9141761848448601E-04
              -1.7222441078407033E-03
               4.5925414511594799E-04
              -9.9192349893323221E-04
               4.8900940855618692E-04
               5.7511292393751798E-04
              -4.1693990156937142E-04
               2.7866315539946413E-03
              -3.2925220917354846E-03
               5.0289182616291726E-04
              -2.0631204778353497E-03
              -9.9774528298702506E-04
              -2.1192299381001716E-04
              -8.9140847501068378E-05
              -9.5932334820840546E-04
               3.3327232949841230E-04
              -6.3591099713612232E-04
               1.5485256446033297E-03
               1.3395802812732492E-03
              -3.5004864599643263E-03
               1.1121398455531781E-03
              -4.9428030307046937E-04
               1.5553772082979392E-03
              -1.3431282415966943E-03
               4.0611431984518701E-03
              -1.2537711868512076E-03
              -9.5120454531961215E-04
               1.9136254231079939E-03
              -4.1460746347035541E-03
               3.5782812621232732E-03
               4.2486135009194665E-03
               6.8760407567881984E-04
               1.3545442568100219E-03
              -1.4615899386068820E-03
              -2.2569770437219044E-03
               2.1554991700255027E-03
              -1.0005589968252551E-03
               1.7681697848595211E-03
               4.2648758353817950E-05
              -1.6907178617606836E-03
               6.4968005945339493E-04
               4.2642353232621045E-04
               1.1751637426469256E-03
              -1.7798015694233172E-03
               4.5085146371178827E-03
              -9.4041418335586021E-04
               2.6432022411169232E-03
               6.8753045231271777E-04
              -4.1523956213851930E-05
               2.5906764507825026E-03
               8.6137886722669052E-04
              -2.7497410461921903E-03
               1.1682977914030295E-03
              -9.1530413712805872E-04
              -5.2639073888179804E-04
               6.7104804841677768E-04
               1.0091585822464529E-03
               1.4202545811375681E-03
               9.8298366542859893E-04
               9.7069415499736653E-04
               4.7360686630569407E-04
              -9.9237154267893318E-04
               6.1585640080017269E-04
               1.9086664836634706E-04
              -2.7351377360740024E-03
               3.7485054753065117E-05
               2.3071451303218449E-03
              -2.6893932987019092E-06
              -6.7693395443669567E-05
              -1.5986738314731979E-03
               1.4177058212462318E-04
              -3.6435685273594346E-03
               3.1399666438819646E-04
               5.0030844543261102E-04
              -1.9242672456889146E-03
               4.9024872791366596E-03
               2.4183967580714469E-03
               1.9352757293277780E-03
               1.2122805340260103E-03
              -1.0191101992414397E-03
              -6.8201004240425419E-04
              -7.0573185028762484E-05
              -4.8508977297257773E-04
              -6.9916928136209728E-04
              -2.3401066773907600E-03
              -4.2305307369056618E-04
              -2.3815941789617021E-03
               1.2043279341669066E-03
              -1.7664971794238969E-03
               1.7357508593180120E-03
               1.8809435359015319E-03
              -6.2732818631763545E-03
              -5.1413678514755168E-05
               1.2772543380046861E-03
               1.7465876667677013E-03
               3.4071174146102967E-05
              -9.0535405838616475E-04
               2.9326450471050059E-03
               1.6531787370665922E-04
              -5.1289706449615079E-03
               1.3467871462736908E-03
              -3.6807756809332814E-03
              -1.4350029915602301E-03
              -1.2652572002949611E-03
               1.0032590778273620E-04
               1.8927832367270891E-04
               3.6033220321514403E-03
              -2.0679182227283221E-03
              -1.0659779043708864E-03
               1.4787363000331039E-03
               1.8681536557772563E-03
              -1.3058886587204396E-03
              -1.1486216088746560E-03
              -2.6369904612305326E-03
              -1.4158200636133148E-04
               2.5770192713014321E-03
               6.3229641816109805E-04
              -4.4630652632628928E-03
               1.5348949082051567E-03
               4.4819201794685116E-03
              -1.6757276856908892E-03
              -1.4182045574058124E-03
               5.0394428517866452E-04
              -1.4131232077728624E-03
               1.6854302110331509E-03
               2.5000610427608944E-04
              -4.3961634405501240E-03
               2.2313860634352476E-03
               2.1897363775075156E-03
              -1.2658648698768242E-03
               1.2658124918852244E-03
               6.6565192333868910E-04
               4.7738991559897201E-03
               1.6727736753948264E-04
              -2.9483854662447776E-03
               1.5071591807067895E-03
              -3.4018978829935135E-03
              -3.6132706832557896E-03
               2.7037812509445266E-03
               8.2180566227975480E-05
               1.3917723267415144E-03
              -1.1760810679992931E-04
               1.6528807258371695E-03
               5.7854996985099447E-04
              -1.2882030242130737E-03
              -1.7527377106864577E-03
              -8.0571038272161727E-04
               4.0010057752502208E-04
               2.9841434542878388E-04
               7.7312826288283962E-04
              -5.7246594187933687E-04
               4.1940748197258175E-04
               1.4734629602894665E-03
              -1.6954312747565739E-04
              -1.8001648723479197E-03
              -5.6070885436932890E-05
               6.9166947570228595E-04
               2.8416175901649840E-03
               1.5882562042229308E-03
              -8.0560798093517799E-04
              -2.3778507826197000E-04
              -8.0155884581751928E-04
              -1.2460008383758333E-03
              -2.4381497789241596E-04
              -2.2187690180681917E-03
              -7.9389441857565706E-04
               7.3052115296257396E-04
              -2.8694758218468525E-03
              -8.7214765256589659E-05
              -1.9390666895797667E-03
               6.9784564779427536E-04
               2.2483830207689600E-03
               8.5689829101122904E-04
              -9.6484639187741431E-04
               5.7243742565371691E-03
               1.6486691273776376E-04
              -1.9842014870043211E-04
              -8.6547182855945806E-04
              -1.7752168551587919E-03
               7.9493607330386243E-04
              -9.8123477926244569E-04
               1.9637019825592627E-03
               9.8037090057501337E-04
               9.5709883647933911E-04
              -1.2175458260101966E-04
               3.0601233484718925E-03
              -3.7711932966439624E-03
               3.4806512440654584E-03
              -2.0528883712884697E-03
              -1.9007087336195111E-03
              -2.5649145631281493E-03
               1.1465252979049952E-03
               3.1924122439689518E-03
               1.4762441329889354E-03
               9.8198496311076690E-04
               1.4778768843928672E-03
               2.6470637865687605E-03
               1.0844671717135171E-04
              -6.6236364108318308E-04
              -8.9008934932026992E-03
               1.6486769466373073E-03
               7.0325689625941020E-04
              -4.8193372877483945E-03
              -4.0763106424342421E-04
               7.3398032340244227E-04
               1.8155325375211863E-03
              -2.4276077864108852E-03
              -3.1706560626156493E-04
              -1.6696959233272095E-05
              -3.7217479095612866E-03
              -1.2777712593758555E-03
              -2.6615631785283267E-03
               1.8972135980276036E-03
              -1.5945471423127887E-03
              -1.7960721423780017E-03
              -5.5929895357188161E-03
               4.0361127621897580E-03
               1.1329802373946543E-03
              -2.5469472261159653E-03
               2.8091881033797833E-03
              -3.5036708015619242E-04
               4.3960427376006693E-04
               2.3505325113219186E-03
              -2.5717373536554176E-03
              -2.4354836703914585E-03
              -3.6372938714681913E-04
              -1.0080942530080476E-03
               1.2530316289428268E-03
               4.3416699366191679E-03
              -3.3534127467307736E-03
              -9.0710110658243667E-04
              -5.0300173544458576E-04
              -2.9884985681334210E-03
              -3.3668358270532899E-03
               7.0451419076762401E-03
              -7.0261084690694127E-04
              -8.7363346581956192E-04
               1.7767426213667935E-03
               2.5160989498856112E-03
              -1.5067679901181671E-03
              -2.8274943847613485E-03
              -5.0048013618784532E-05
              -3.7099756718286031E-03
               3.9446584439284843E-04
              -3.3875880094906118E-04
               1.7915336521361412E-03
              -4.5318668089045699E-03
               1.9723819443359871E-03
               3.6735893235202824E-04
               1.2220234496002683E-03
              -3.8324050734735837E-03
              -1.7739979941712356E-03
               4.8880163382683376E-04
               4.5819813976294551E-03
               2.5959551892275994E-03
              -6.8080626438039062E-03
              -2.1694802777469419E-03
              -3.3623589882089445E-03
               1.6566382199303010E-03
               1.1598391940185809E-03
               2.7321787000178662E-03
              -2.5355426468281361E-04
              -3.8580742985004834E-03
               4.8397194231033467E-04
               4.9416504881272466E-05
              -1.3267177497181255E-03
              -2.0411960015041795E-03
               1.7964086646890390E-04
               1.6904456702917046E-03
              -3.0066959668977465E-03
               4.8612124579927812E-04
               7.4976490196551346E-03
               5.4842850275560831E-05
              -3.1667429403330807E-03
              -1.0590729574974443E-03
               2.2268793510020271E-03
              -3.8890459904051438E-04
              -5.9552208967505560E-04
              -2.1753322996648462E-03
               1.6008410687029019E-03
              -1.1710130849234002E-03
              -1.3990263915176935E-03
              -1.9778987703518679E-03
               5.5176793975632798E-04
               7.5876759187633487E-04
               7.8635927731625973E-05
               1.7326041443792154E-03
              -2.7259631982910048E-03
               1.9812068234933066E-03
               5.3856170400370972E-05
               3.1713337797677965E-03
               1.6129278226056818E-03
              -1.0709287449889473E-03
              -3.8211273453155943E-04
               2.8266795180353034E-03
               5.6958978694045363E-03
              -6.6999754737762129E-05
              -1.7306805708928118E-03
               5.9430791013396274E-04
              -1.5164366862235426E-04
              -5.3585485909834660E-04
              -8.5847596066276899E-04
              -1.7942038744232667E-03
              -5.2428609923729828E-04
               3.2465440458087776E-04
               3.4712940702503851E-05
               1.4589249254181693E-03
              -1.7737345506333830E-03
               1.6666728260700038E-03
               3.5854442496748074E-03
               2.0993593168828909E-03
              -1.4917072007967361E-03
              -1.0530756363616772E-03
               1.3958714118815301E-04
              -3.1027984903691601E-03
               2.6373764818272620E-03
              -1.8500215414160145E-03
               1.2656757168495697E-03
              -4.2920067604832321E-03
               4.7296553234938869E-04
              -2.0121652527040957E-03
               1.0750353036207666E-03
               3.5981423314120092E-04
               1.6718715967918869E-03
              -7.3640732358051168E-04
               6.6308724201445907E-04
               5.6427293822996468E-03
              -4.6808600980730525E-03
               1.9555145856654376E-04
               3.7212753936282533E-04
               7.6419211126908424E-04
               2.5929336343201597E-03
              -2.2987276603496642E-03
               4.2492524931287367E-04
              -5.8232745741517648E-04
               5.6663082688597119E-04
              -6.1332475172568932E-03
               1.1190605901543198E-03
               2.3710530491590854E-04
               1.3156992533904528E-03
              -4.8933768373226509E-04
               7.6021476044620909E-04
              -1.4683981142587330E-03
               3.0605764418151450E-03
               8.7579956633007747E-04
              -1.5977375984766624E-03
              -8.2720625376212094E-04
               4.3538107323157498E-05
               2.2790261010864160E-04
               1.4396904679893341E-03
              -3.6314563912581495E-03
               1.8615993693034531E-03
               7.2761735389143965E-04
              -2.1360938243655445E-03
               4.8174437204808585E-04
              -7.0091000871859473E-05
              -2.1467894227884178E-04
               2.4546289239493809E-03
               9.6496424362258718E-04
               8.0084149804117910E-05
              -1.0826959860453320E-03
              -3.0877116427147650E-03
               1.0173728875378489E-03
              -5.6301512815163518E-06
               8.8743481609552830E-05
              -2.4593717076809383E-03
              -1.6312645628606341E-03
              -6.7358686228794721E-04
              -2.2747552702048401E-03
               3.2151760090546357E-03
              -2.6461599535269943E-03
               2.8636113135417328E-03
               2.1938373025764506E-03
               3.1108619569069000E-03
               9.4091231208395234E-05
              -6.3992081205560786E-04
              -2.8319526228367093E-03
              -3.7647349913383244E-03
               4.0498659565898487E-03
               2.4276892174313227E-03
               2.4573897714540182E-03
              -3.5139590296218424E-03
               7.2589726085041232E-04
               5.6184597107463569E-04
              -1.9228125894596229E-03
              -2.5388126674015243E-03
               2.4073003427581715E-03
               1.2464835658890017E-03
               5.5290200716676501E-03
              -3.4875802327683863E-03
              -8.9569988293973328E-04
         &END THERMOSTAT_ENERGY
         &RNG_INIT
Wiener process for Thermostat # 1        1 F T T  -2.8346773601820590E+00        1503755086.0        3787759494.0        2602103168.0         410739603.0        1927441158.0        1744333983.0             12345.0             12345.0             12345.0             12345.0             12345.0             12345.0             12345.0             12345.0             12345.0             12345.0             12345.0             12345.0
Wiener process for Thermostat # 2        1 F T T  -5.9628252178774044E-01        4153103889.0        2078653450.0        1158761755.0        1637197294.0         963349698.0        3012056994.0        3692455944.0        1366884236.0        2968912127.0         335948734.0        4161675175.0         475798818.0        3692455944.0        1366884236.0        2968912127.0         335948734.0        4161675175.0         475798818.0
Wiener process for Thermostat # 3        1 F T T   1.0812922147123043E+00        3685113290.0        1326250566.0         451200367.0         363130861.0        2642650723.0        2577954648.0        1015873554.0        1310354410.0        2249465273.0         994084013.0        2912484720.0        3876682925.0        1015873554.0        1310354410.0        2249465273.0         994084013.0        2912484720.0        3876682925.0
Wiener process for Thermostat # 4        1 F T T   6.6904336130293274E-01        1960158131.0        1970660437.0        3691013333.0        3115111789.0        2975011095.0         739837881.0        2338701263.0        1119171942.0        2570676563.0         317077452.0        3194180850.0         618832124.0        2338701263.0        1119171942.0        2570676563.0         317077452.0        3194180850.0         618832124.0
Wiener process for Thermostat # 5        1 F T T   5.6693075507997182E-01        3736811983.0          27004335.0        1651156953.0         224158338.0         217537903.0        2680195303.0        1597262096.0        3906379055.0        3312112953.0        1016013135.0        4099474108.0         275305423.0        1597262096.0        3906379055.0        3312112953.0        1016013135.0        4099474108.0         275305423.0
Wiener process for Thermostat # 6        1 F T T  -1.1838357034378235E+00        1217780743.0         582044798.0        1039820143.0        3770946246.0        3900164331.0        1567048875.0          97147054.0        3131372450.0         829345164.0        3691032523.0        3006063034.0        4259826321.0          97147054.0        3131372450.0         829345164.0        3691032523.0        3006063034.0        4259826321.0
Wiener process for Thermostat # 7        1 F T T   1.3323458721899528E+00        2175734700.0        3726154933.0        1512271227.0        3443325329.0         920743908.0        1056389449.0         796079799.0        2105258207.0         955365076.0        2923159030.0        4116632677.0        3067683584.0         796079799.0        2105258207.0         955365076.0        2923159030.0        4116632677.0        3067683584.0
Wiener process for Thermostat # 8        1 F T T   1.0291196354937659E-01        1692827094.0        2639725516.0         992773437.0        3597331362.0        3431799492.0        1581357095.0        3281794178.0        2616230133.0        1457051261.0        2762791137.0        2480527362.0        2282316169.0        3281794178.0        2616230133.0        1457051261.0        2762791137.0        2480527362.0        2282316169.0
Wiener process for Thermostat # 9        1 F T T   4.1568844398439891E-01        4268905745.0         957076659.0        3736768977.0        2357290829.0        1047973390.0        2845732879.0        3777646647.0        1837464056.0        4204654757.0         664239048.0        4190510072.0        2959195122.0        3777646647.0        1837464056.0        4204654757.0         664239048.0        4190510072.0        2959195122.0
Wiener process for Thermostat # 10       1 F T T   5.0228222190023319E-01        4193057085.0        1478572125.0         911454562.0        3221911519.0        2515040577.0         537238255.0        4215590817.0        3862461878.0        1087200967.0        1544910132.0         936383720.0        1611370123.0        4215590817.0        3862461878.0        1087200967.0        1544910132.0         936383720.0        1611370123.0
Wiener process for Thermostat # 11       1 F T T  -2.7158716813613779E+00        3490118374.0        2302012899.0        1806343524.0        3897043305.0         332811245.0        1677847015.0        1683636369.0         362165168.0         814316280.0         869382050.0         980203903.0        2062101717.0        1683636369.0         362165168.0         814316280.0         869382050.0         980203903.0        2062101717.0
Wiener process for Thermostat # 12       1 F T T  -2.9049997296833885E-01        3441147499.0         990738098.0        1971736699.0        3920129338.0         247709894.0        3467372896.0         272317999.0         166758548.0         310112982.0         201045826.0        1680231254.0         118290799.0         272317999.0         166758548.0         310112982.0         201045826.0        1680231254.0         118290799.0
Wiener process for Thermostat # 13       1 F T T  -4.2380861579758533E-01        3813286645.0        4011265256.0         429382143.0        4035138951.0        3117730654.0        3026718698.0        2245755202.0        1652682525.0        2865544364.0         721509566.0         209733568.0         592362218.0        2245755202.0        1652682525.0        2865544364.0         721509566.0         209733568.0         592362218.0
Wiener process for Thermostat # 14       1 F T T  -1.3840234015777755E+00        1006946411.0        1630485820.0          79063874.0         893081539.0         576159392.0        3710172545.0        3003961408.0        3529909391.0          14538032.0        3603919910.0         566682685.0        1235016484.0        3003961408.0        3529909391.0          14538032.0        3603919910.0         566682685.0        1235016484.0