 # Version information for this restart file 
 # current date 2024-11-21 20:41:52.268
 # current working dir /scratch/fh2268/comp-lab-class-2024/Week12-IntroAIMD/Runs/Water
 # Program compiled at                              Sat Dec 12 18:27:15 EST 2020
 # Program compiled on                                         cs001.nyu.cluster
 # Program compiled for                                                nyu-intel
 # Source code revision number                                       git:8c64c6e
 &GLOBAL
   PRINT_LEVEL  LOW
   PROJECT_NAME WATER_SIMULATION
   RUN_TYPE  MD
   WALLTIME 21600
 &END GLOBAL
 &MOTION
   &GEO_OPT
     OPTIMIZER  BFGS
     MAX_ITER  100
     MAX_DR     3.0000000000000001E-03
     &BFGS
     &END BFGS
   &END GEO_OPT
   &MD
     ENSEMBLE  NVT
     STEPS  2000
     TIMESTEP     4.9999999999999994E-01
     STEP_START_VAL  175
     TIME_START_VAL     8.7500000000000071E+01
     ECONS_START_VAL    -1.1023558357480229E+03
     TEMPERATURE     3.0000000000000000E+02
     &THERMOSTAT
       TYPE  GLE
       REGION  MASSIVE
       &GLE
         NDIM  5
         A_SCALE     1.0000000000000000E+00
         A_LIST     1.8595758612559999E+02    2.7263853498399998E-01    1.1526100454610001E+01   -3.6414578262600003E+01 \
             2.3173375816020001E+02
         A_LIST    -2.7809524712060002E-01    8.5951591808710006E-05    7.2189048017650004E-01   -1.9844539343859999E-01 \
             4.2409257583420001E-01
         A_LIST    -1.4825808131210000E+01   -7.2189048017650004E-01    1.3590902121280000E+00    5.1498896280349999E+00 \
            -9.9949268450990001E+00
         A_LIST    -1.0372189126880000E+01    1.9844539343859999E-01   -5.1498896280349999E+00    2.6661910891169999E+01 \
             1.1507715495310000E+01
         A_LIST     2.1801346360420001E+02   -4.2409257583420001E-01    9.9949268450990001E+00   -1.1507715495310000E+01 \
             3.0958394565589998E+02
         &THERMOSTAT_ENERGY
              -1.6856247191544178E-03
               2.2567191668178953E-03
              -1.3093091688066188E-04
              -2.4236763764993140E-03
              -1.0315879617671525E-03
               2.8105832007731409E-03
              -3.1247937867926461E-03
               6.9430736155478992E-04
               3.1530458591835743E-03
              -1.7450862017284383E-03
               3.4504985061630700E-03
               1.0144582400520817E-03
               4.1903129856190125E-03
              -2.4675451708989354E-03
               4.3699680996147814E-04
              -2.4235774093626476E-03
               3.6265953194097745E-03
              -1.8564881967877910E-03
               2.4732126558150353E-03
              -1.4532487787634368E-03
              -2.8166111853282732E-04
               7.7751780703063614E-04
               1.4704894733121038E-04
               2.2428289142711142E-03
              -4.6092759642105182E-03
              -2.2186877536034071E-03
               3.3233897519193293E-03
               1.3119956551018086E-03
               1.2163267463894290E-04
               1.8777846033960676E-04
              -8.0683552018776753E-04
              -2.3742937586324173E-03
               8.3547696806194640E-04
               6.9701309911390742E-05
              -1.9975597996135038E-03
               2.3625658507678842E-03
              -1.5214141651078458E-03
               2.2969738996758972E-04
              -8.9653230932806101E-04
               6.1438583897538055E-04
               3.5067002129051728E-04
              -2.9917179580871553E-03
              -1.0683643853698040E-03
               2.5957024907020398E-03
              -2.2727873774178384E-03
               1.5916597455499365E-03
              -1.1908892846524356E-03
              -5.5675757541074369E-05
              -8.6657920074031231E-04
              -4.4046685687439407E-04
               1.9241573979006873E-03
              -6.0050000089349612E-04
              -2.0416122226612037E-03
               5.6340419828136571E-04
              -2.3775875057117767E-03
              -3.2485355905543611E-04
              -1.4213939460313767E-03
               1.8218639979420874E-03
               2.4781947109811095E-03
              -1.9071600265870292E-03
              -6.5067329928792110E-04
               4.3494640551720041E-03
              -1.3045796408698435E-03
              -1.8363951974935031E-04
              -9.9506159290461515E-04
               1.2197538034204422E-03
              -4.2030113716326253E-03
               2.3946499447007803E-03
              -1.4855684444656145E-03
               1.5733659974783757E-03
               1.7697272026539024E-03
               5.4348325070611043E-05
              -2.1054667407846856E-03
               9.3254950932456870E-04
              -9.3002865302947881E-05
              -1.6158216489442004E-03
               3.7205162411597275E-04
               2.2165813708810355E-03
               5.5485710123011154E-03
              -1.5736800125936005E-03
               7.3739298465142584E-04
              -4.4744749471265855E-05
              -1.8390248475278087E-03
              -1.5617558809652061E-04
               3.4259630820704244E-03
               1.2870945794337101E-04
               1.2728547329662499E-03
               1.6652071022643983E-03
               4.5280599999112140E-04
              -1.6357424827071871E-03
               2.7603410193272468E-03
              -3.1827470650664484E-03
               1.2248864216822131E-03
              -1.5327026867284222E-04
              -4.5133021951661613E-03
               6.7375036767553735E-04
               8.8634517484796556E-05
               8.8570273068247843E-04
               2.6444585545837129E-03
               1.2505831008199106E-03
               1.6198911060762012E-04
              -1.7090507260691017E-03
               4.3835386250331859E-05
               8.2636152086272335E-04
               5.1278206752734300E-03
              -2.4472485767846257E-03
               2.6644301455728712E-04
              -2.2745277368109509E-03
               3.3359855068544912E-03
              -1.0628175414395324E-04
               5.9443260728806475E-03
               1.4586406968295290E-04
               2.9936022625030498E-04
              -1.8904895717799931E-03
              -8.9278923665325879E-04
               3.1332482680114576E-03
              -9.0131968140091147E-03
               1.9294785807855751E-03
              -5.6461486049429275E-05
               1.0576721477075697E-03
              -8.1338860320176204E-04
              -4.9769799897322951E-04
               3.5715647789214574E-03
              -1.0150197041158236E-03
              -3.5811111168678488E-03
               7.8894150549995725E-04
               9.7709287893392579E-04
               4.3413226875030258E-03
              -5.9690388903038726E-04
               2.0182042131044707E-03
              -1.9454163839351028E-03
              -2.1468260313258895E-03
               5.0512837013652178E-04
              -2.3972938510541087E-03
              -1.3996519213696512E-03
              -1.0313153107781431E-03
              -2.5479054324061535E-03
              -1.6972745050849768E-03
               1.2542563932433524E-03
               1.3343178659112496E-03
               2.8603409687568610E-03
               2.3261161181262063E-03
               5.9516030354930284E-04
               4.9941723340557931E-05
              -1.6322421395260490E-03
               9.5049246908552188E-04
               1.3009036065577541E-03
              -3.5918849317086144E-04
              -2.9724873384042458E-03
               2.9505038712900750E-03
               7.8634326944218742E-04
               2.0791136565071829E-03
              -1.8511683857305012E-03
              -2.6655545415528263E-04
               1.1563682141817187E-03
               9.2450427560036472E-05
               1.9427074763414540E-03
              -5.0934778679232037E-04
              -1.3210035271625743E-03
               5.0994276903422713E-04
              -2.6960194271279298E-03
              -3.2022866255238336E-03
              -4.4446804125171710E-04
              -2.2761288778285153E-05
               1.8083930934974742E-03
               2.8874084193403955E-03
               3.0968270017240158E-03
               3.4110140962842473E-04
              -5.4070227446822213E-03
               4.4617844872085646E-04
               5.9199672011086592E-04
              -6.1985606783403560E-04
              -5.1943721120149421E-05
              -5.7937751686659754E-04
              -7.2431836975047769E-04
              -2.9376456823618476E-03
               3.7229859051118630E-04
               2.3575120560929627E-03
              -3.4686078495113713E-04
               2.5485488178422742E-03
               1.0151913916281051E-03
              -1.3162286200765366E-03
               1.3950148595486733E-03
               6.2649990268136052E-04
              -9.1727795026424867E-04
               6.9702863753441657E-04
              -1.3778935062266227E-03
               1.2516655397044272E-04
              -9.2933067128687268E-04
               2.7428650182515933E-04
               1.1639888402599364E-03
              -7.4313047790101157E-04
               3.5138829113756697E-03
              -3.3680874491628238E-03
               5.6016924362056394E-04
              -2.2531129907939549E-03
               2.8552088867848339E-04
              -9.5654232201331413E-04
              -8.9830878382384974E-05
              -6.8217566372828363E-04
               4.8035747482370059E-04
              -6.1005057388714614E-04
               1.6704205603972652E-03
               1.5746732401506064E-03
              -3.6739463705606954E-03
               9.0589718442713038E-04
              -1.1407746856464760E-03
               9.7421909822798880E-04
              -1.3533017847324913E-03
               4.0241629179899874E-03
              -1.0415244284484222E-03
              -5.6289788940179063E-04
               2.0854906599868110E-03
              -3.9859723152084262E-03
               3.2042235147336467E-03
               4.3524109404137670E-03
               8.5425782535140688E-04
               1.3412196939902982E-03
              -1.4932148876342856E-03
              -2.0502308752004986E-03
               3.1863392129968314E-03
              -7.3338105407329431E-04
               1.9586129898765260E-03
               4.1258560452905500E-04
              -1.4983115833957540E-03
               6.3519185898950096E-04
               1.0115725625057213E-04
               1.2484698648966668E-03
              -6.8826210772733674E-04
               4.4115789289612831E-03
              -7.3974528450136386E-04
               2.9859761723354324E-03
               8.5252628417762202E-04
              -9.5189064457675931E-05
               2.6314796305498978E-03
               6.8442507137371305E-04
              -2.8209623153544442E-03
               1.3347092602511920E-03
              -1.2978473326788888E-03
              -3.8693181932158169E-04
               7.6279923966115376E-04
               6.4667214223075521E-04
               1.6905359656357621E-03
               1.6409450691581690E-03
               1.0633282189981910E-03
               1.1212815683939539E-03
              -8.6817002820633346E-04
              -2.0265764099549444E-04
               5.9411136771376116E-06
              -2.5642030762400496E-03
              -2.2685716100923482E-04
               2.8783623803831995E-03
               5.6396114838156786E-05
              -1.7012670157262171E-04
              -1.6401628030961711E-03
              -5.7310721196580157E-04
              -3.6634721515815443E-03
               4.3722807175912751E-05
               6.0264555397604902E-04
              -2.4584746763294404E-03
               3.9430983240771583E-03
               2.3719418886154241E-03
               1.9694048289517741E-03
               1.5288921835012210E-03
              -6.4267058471428602E-04
              -9.7490211830089462E-04
              -5.1709881597495624E-06
              -5.3208295403240572E-04
              -9.3576315546356589E-04
              -2.3679861606440561E-03
              -2.3322797528403235E-03
              -2.2434479480047762E-03
               1.2441121090814367E-03
              -1.6717142414718702E-03
               1.6071106698057050E-03
               1.8749686124825864E-03
              -6.3307820466899081E-03
              -8.2797841019139717E-04
               1.0011070728687798E-03
               1.6378171133306957E-03
              -4.1800625407085551E-04
              -7.3295589299884347E-04
               2.5513765004422000E-03
               5.3733692208758209E-04
              -4.8514837462726810E-03
               9.1499422822429800E-04
              -3.9681342109489180E-03
              -1.1720741731241025E-03
              -7.1510575040562528E-04
               8.5146627606895345E-04
               1.4155286853952283E-04
               3.6122552236056466E-03
              -2.0026123820251424E-03
              -9.3021481657263477E-04
               1.2892573075125370E-03
               1.8828802447091134E-03
              -1.3437735700843349E-03
              -1.1768304538215624E-03
              -2.8772512166264524E-03
              -4.2103725879480133E-05
               2.1369300381185318E-03
               7.5455707633143238E-04
              -4.4587033028946092E-03
               1.4077809753597014E-03
               3.8703762113563543E-03
              -1.8771727618168263E-03
              -1.4695486234559624E-03
               4.6101865523285950E-04
              -7.7228430971337271E-04
               1.7334324820220044E-03
               4.9517107626193099E-04
              -3.4802312127670274E-03
               2.1869055394036821E-03
               2.2311396748064330E-03
              -4.7439136705810657E-04
               2.1201638077433388E-03
               7.3360233880756965E-04
               4.7367799278657139E-03
               5.7010637299253857E-04
              -2.4407172794519917E-03
               1.6204774155506106E-03
              -3.3570098203061175E-03
              -3.5252756982103901E-03
               2.6083916987994366E-03
              -3.0764075879249002E-04
               1.5370352230312430E-03
               2.3958289098544022E-04
               1.6562398823714844E-03
              -1.9634136870789814E-04
              -1.4073242100997646E-03
              -2.3881499326824430E-03
              -7.4456264322216243E-04
               8.0454805908916182E-04
               2.1252013379581616E-03
               9.7072169969039939E-04
               1.4554967894251110E-04
               1.4076672808084850E-03
               2.8450182676516985E-03
              -5.6628662468915505E-04
              -1.4559521061198637E-03
               4.0107777839797185E-05
               8.3871384304095220E-04
               2.7292539926251232E-03
               1.2498110025396191E-03
              -4.6936661029377443E-04
              -4.3637366831147256E-04
              -6.2506122201641198E-04
              -1.4048644982694830E-03
              -6.6601375517530133E-04
              -3.0359651557492987E-03
              -1.2229085482550015E-03
               8.9420347207101692E-04
              -2.6227790386692358E-03
              -1.6775657585909530E-04
              -3.0001852958097732E-03
               1.1431598079647805E-03
               2.1444569581868249E-03
               4.3197183715484714E-04
              -9.0923037068602465E-04
               5.9690585434016069E-03
              -3.7279775954203790E-04
              -1.5173045131452664E-04
              -6.0494028768442749E-04
              -2.0293250874646234E-03
               8.0019825701095333E-04
              -1.1394975710561953E-03
               2.0464101706466425E-03
               1.2841389919816884E-03
               8.7279798846202330E-04
              -1.5384760197541958E-04
               2.2893972094524106E-03
              -2.9899790070506741E-03
               3.3669283564837561E-03
              -1.0959093441998569E-03
              -2.0481379293324159E-03
              -3.2649116911570028E-03
               1.0935099798885847E-06
               2.8035068001197113E-03
               1.7665508979598846E-03
               7.1869388264986570E-04
               1.5370361318038930E-03
               3.1268899442531651E-03
               2.1431556565902235E-03
              -6.7890347645124176E-04
              -8.8422534387747956E-03
               1.4816276698611992E-03
               4.3493733991568917E-04
              -4.4023044283083707E-03
              -8.5771620649349734E-04
               7.5767093858688920E-04
               2.0013370389613287E-03
              -2.3525530539292780E-03
              -2.9048455453020152E-04
              -6.7347777386332923E-05
              -4.4987277573549089E-03
              -1.2344818510626476E-03
              -2.7020372307701270E-03
               2.1322334510995885E-03
              -9.7007778170162082E-04
              -1.9678187973148366E-03
              -5.6385908272870789E-03
               3.8183203024603493E-03
               8.9585224684045404E-04
              -2.5503675947388428E-03
               2.7574669143274355E-03
               3.4297682214133466E-06
               4.4221070188932342E-04
               2.3640294614800791E-03
              -2.6451349403379034E-03
              -2.8926965018099757E-03
              -4.7260653105592247E-04
              -1.1484443087558269E-03
               1.0680591153355229E-03
               4.3212819050659559E-03
              -3.3353144325695252E-03
              -3.5177169726442915E-04
              -4.2367827260680424E-04
              -3.0062887468543242E-03
              -3.4727740887907743E-03
               7.4905399992081243E-03
              -7.4016940556225166E-05
              -5.2314461797294833E-04
               1.9948131658737039E-03
               2.3803957434499661E-03
              -1.4315421141625471E-03
              -2.4962375541033961E-03
               3.4045763525713852E-04
              -3.1391533211741901E-03
               1.3072193514419790E-04
              -4.2266399484283294E-04
               2.1169704812240972E-03
              -4.9973280654138441E-03
               1.8273653006460747E-03
               6.9126325932631174E-04
               1.3331254959066865E-03
              -4.1679698827532729E-03
              -2.2478423831079944E-03
               6.6374393800629553E-04
               4.7334450020985021E-03
               2.5010236133098584E-03
              -6.9236729393569452E-03
              -1.1332576244099410E-03
              -2.2512121981056741E-03
               1.7107024476261286E-03
               8.8975141485791607E-04
               3.7435393416610737E-03
              -1.7734934864271299E-04
              -4.4015024898151657E-03
               5.4444939263296815E-04
              -6.5620527007583581E-06
              -1.6173706940073164E-03
              -2.0447938975805390E-03
               9.2342305272086526E-04
               2.1485981221778970E-03
              -3.8737790113753841E-03
               4.4960820229288627E-04
               7.3880209360458549E-03
              -1.6234743062913090E-04
              -3.4352304388775849E-03
               3.2610584403798277E-04
               2.2732743092961135E-03
              -2.9861136976854424E-04
              -4.7820140458940358E-04
              -2.2144169363121761E-03
               1.1602785592486602E-03
              -1.1844805929052192E-03
              -1.7765437945174664E-03
              -1.4153158898121503E-03
               1.0495707141281335E-03
               9.7128883902665051E-04
              -3.2006408585261343E-04
               2.3980287392506663E-03
              -2.9730769897527718E-03
               1.6887175664542838E-03
               3.0263981502089046E-04
               3.2450785127263165E-03
               1.8941209359133739E-03
              -1.9407089724561948E-03
              -3.6736258031957081E-04
               3.2064174470773183E-03
               5.7585327125753150E-03
              -6.7847879677419452E-05
              -1.4540036116389480E-03
              -1.6093715144425177E-03
              -3.0712930932493541E-04
              -4.2375063798688508E-04
              -3.2316318108058240E-05
              -1.7700005085915010E-03
              -6.6916851115824468E-04
               5.2255775475375482E-04
              -1.1415836400489423E-03
               1.2852921617843374E-03
              -1.6871922165583636E-03
               1.2444255642824194E-03
               4.0783754771582317E-03
               2.0962220548021455E-03
              -9.6172104801025681E-04
              -1.4106138246637316E-03
              -1.0651482960350857E-04
              -3.4924481657668165E-03
               3.0678039639026947E-03
              -1.3905709305759119E-03
               1.6902705634308194E-03
              -4.0015044868295675E-03
               4.6854472784589894E-04
              -1.7513011539015194E-03
               5.5187034424626668E-04
               4.5722321905396294E-04
               1.7260221866281275E-03
              -8.5934346182365347E-04
               3.4568534173325864E-04
               5.7590724800835524E-03
              -4.3455252025121887E-03
               1.4676710984287160E-03
               5.1158514924161088E-04
               5.5753018891925923E-04
               2.6091500790944057E-03
              -2.4734177587108514E-03
               5.5374306612898487E-04
              -7.3137862961892555E-04
               6.0098608919982002E-04
              -5.3101815127105777E-03
              -3.1691086636078281E-04
               7.8733398150892620E-04
               1.4460907086167119E-03
              -5.7699188021519436E-04
               8.6383758046781520E-04
              -1.6698514195824280E-03
               2.9305433647511909E-03
               8.1606094216513103E-04
              -6.4768195766065151E-04
              -9.3998503902923097E-04
              -7.5045492634498250E-04
               2.2173743919170637E-04
               1.5428216955554700E-03
              -3.6573597414530654E-03
               1.3605088726412933E-03
               6.8896570337504662E-04
              -2.3189281684568319E-03
               5.0134525324279267E-04
              -5.0961461547093293E-04
               2.5706569215159429E-04
               2.6564833003753182E-03
               1.3028186384741191E-03
              -1.1773198745620016E-03
              -5.8183472560702297E-04
              -1.9745235678351736E-03
               1.1667845513278101E-03
              -1.3301576066639864E-03
               1.1618627221923235E-04
              -2.4804205955093867E-03
              -1.0751953236707225E-03
              -1.5872501248220054E-04
              -2.3179828282324485E-03
               3.3001467362983455E-03
              -2.6918472185498100E-03
               2.9723108033398965E-03
               2.8417273547700706E-03
               4.8329891443049267E-03
               5.8739828995182887E-04
              -6.6030431281468237E-04
              -2.6105048939618876E-03
              -3.7788174306386977E-03
               3.8485354088123760E-03
               2.5595243444170015E-03
               2.6216673129611980E-03
              -3.5154773714992089E-03
               4.9643215005304171E-04
              -3.1356779675727127E-04
              -1.8335427408769193E-03
              -2.4352741820502454E-03
               2.1301391302576823E-03
               8.3142842129865291E-04
               5.5149877110560888E-03
              -3.3529609152975035E-03
              -8.9858690837633535E-04
         &END THERMOSTAT_ENERGY
         &RNG_INIT
Wiener process for Thermostat # 1        1 F T T  -9.9318287164945651E-01         323822472.0        3281149522.0        3902154964.0         282496022.0        1804166840.0        1419600791.0             12345.0             12345.0             12345.0             12345.0             12345.0             12345.0             12345.0             12345.0             12345.0             12345.0             12345.0             12345.0
Wiener process for Thermostat # 2        1 F T T   1.2016268791393865E+00        2247908208.0        3147153934.0        3171739569.0        1091077236.0         148563276.0        1468686875.0        3692455944.0        1366884236.0        2968912127.0         335948734.0        4161675175.0         475798818.0        3692455944.0        1366884236.0        2968912127.0         335948734.0        4161675175.0         475798818.0
Wiener process for Thermostat # 3        1 F T T  -1.2110534455651560E+00        2867100670.0        1191640836.0        1689688588.0          40433142.0         261836261.0        2470230172.0        1015873554.0        1310354410.0        2249465273.0         994084013.0        2912484720.0        3876682925.0        1015873554.0        1310354410.0        2249465273.0         994084013.0        2912484720.0        3876682925.0
Wiener process for Thermostat # 4        1 F T T  -9.5011475572301851E-01        3851712719.0        3661465768.0        1028124154.0        1205095805.0        1920305805.0        2256044171.0        2338701263.0        1119171942.0        2570676563.0         317077452.0        3194180850.0         618832124.0        2338701263.0        1119171942.0        2570676563.0         317077452.0        3194180850.0         618832124.0
Wiener process for Thermostat # 5        1 F T T  -2.6719425415084092E-01        3373109105.0        4031498223.0        1298755008.0        2483406876.0        2887519968.0        1948676885.0        1597262096.0        3906379055.0        3312112953.0        1016013135.0        4099474108.0         275305423.0        1597262096.0        3906379055.0        3312112953.0        1016013135.0        4099474108.0         275305423.0
Wiener process for Thermostat # 6        1 F T T  -4.5034569813629666E-01        2334899942.0         606319504.0        1245990349.0        1433256671.0        3484265290.0        2870097885.0          97147054.0        3131372450.0         829345164.0        3691032523.0        3006063034.0        4259826321.0          97147054.0        3131372450.0         829345164.0        3691032523.0        3006063034.0        4259826321.0
Wiener process for Thermostat # 7        1 F T T   4.8662176755830333E-01        1479466325.0        3961184063.0         115695784.0         545049917.0        1466176046.0        2990290353.0         796079799.0        2105258207.0         955365076.0        2923159030.0        4116632677.0        3067683584.0         796079799.0        2105258207.0         955365076.0        2923159030.0        4116632677.0        3067683584.0
Wiener process for Thermostat # 8        1 F T T   3.1834189902554672E-01        3381526498.0         666053922.0        3734857948.0        1425889107.0        2100917596.0        1716261640.0        3281794178.0        2616230133.0        1457051261.0        2762791137.0        2480527362.0        2282316169.0        3281794178.0        2616230133.0        1457051261.0        2762791137.0        2480527362.0        2282316169.0
Wiener process for Thermostat # 9        1 F T T   2.0377370648149445E-01        2494462274.0        3266920043.0        4234161152.0        4053098068.0         709844312.0        3858069941.0        3777646647.0        1837464056.0        4204654757.0         664239048.0        4190510072.0        2959195122.0        3777646647.0        1837464056.0        4204654757.0         664239048.0        4190510072.0        2959195122.0
Wiener process for Thermostat # 10       1 F T T   3.5910665588599222E-01        4028952577.0         215501898.0        2941230608.0          26636795.0        2015623419.0         642927026.0        4215590817.0        3862461878.0        1087200967.0        1544910132.0         936383720.0        1611370123.0        4215590817.0        3862461878.0        1087200967.0        1544910132.0         936383720.0        1611370123.0
Wiener process for Thermostat # 11       1 F T T  -9.1677609560006412E-01        2670901176.0        2139056711.0        3078172376.0        2081588713.0        1574315433.0        3689382220.0        1683636369.0         362165168.0         814316280.0         869382050.0         980203903.0        2062101717.0        1683636369.0         362165168.0         814316280.0         869382050.0         980203903.0        2062101717.0
Wiener process for Thermostat # 12       1 F T T   2.8692885661269762E-01        1111851672.0        1635734040.0        1482527434.0        2248492773.0        1878912119.0        2323409667.0         272317999.0         166758548.0         310112982.0         201045826.0        1680231254.0         118290799.0         272317999.0         166758548.0         310112982.0         201045826.0        1680231254.0         118290799.0
Wiener process for Thermostat # 13       1 F T T  -2.1942709910490177E-01        2539412513.0        3620142957.0        1900354209.0         620788746.0        2931006419.0        1687484354.0        2245755202.0        1652682525.0        2865544364.0         721509566.0         209733568.0         592362218.0        2245755202.0        1652682525.0        2865544364.0         721509566.0         209733568.0         592362218.0
Wiener process for Thermostat # 14       1 F T T   7.8294501315479670E-01         678265967.0         655558035.0          39716808.0        3006328528.0        1105447180.0         935705268.0        3003961408.0        3529909391.0          14538032.0        3603919910.0         566682685.0        1235016484.0        3003961408.0        3529909391.0          14538032.0        3603919910.0         566682685.0        1235016484.0