 # Version information for this restart file 
 # current date 2024-11-21 20:40:34.756
 # current working dir /scratch/fh2268/comp-lab-class-2024/Week12-IntroAIMD/Runs/Water
 # Program compiled at                              Sat Dec 12 18:27:15 EST 2020
 # Program compiled on                                         cs001.nyu.cluster
 # Program compiled for                                                nyu-intel
 # Source code revision number                                       git:8c64c6e
 &GLOBAL
   PRINT_LEVEL  LOW
   PROJECT_NAME WATER_SIMULATION
   RUN_TYPE  MD
   WALLTIME 21600
 &END GLOBAL
 &MOTION
   &GEO_OPT
     OPTIMIZER  BFGS
     MAX_ITER  100
     MAX_DR     3.0000000000000001E-03
     &BFGS
     &END BFGS
   &END GEO_OPT
   &MD
     ENSEMBLE  NVT
     STEPS  2000
     TIMESTEP     4.9999999999999994E-01
     STEP_START_VAL  174
     TIME_START_VAL     8.7000000000000071E+01
     ECONS_START_VAL    -1.1023558357480229E+03
     TEMPERATURE     3.0000000000000000E+02
     &THERMOSTAT
       TYPE  GLE
       REGION  MASSIVE
       &GLE
         NDIM  5
         A_SCALE     1.0000000000000000E+00
         A_LIST     1.8595758612559999E+02    2.7263853498399998E-01    1.1526100454610001E+01   -3.6414578262600003E+01 \
             2.3173375816020001E+02
         A_LIST    -2.7809524712060002E-01    8.5951591808710006E-05    7.2189048017650004E-01   -1.9844539343859999E-01 \
             4.2409257583420001E-01
         A_LIST    -1.4825808131210000E+01   -7.2189048017650004E-01    1.3590902121280000E+00    5.1498896280349999E+00 \
            -9.9949268450990001E+00
         A_LIST    -1.0372189126880000E+01    1.9844539343859999E-01   -5.1498896280349999E+00    2.6661910891169999E+01 \
             1.1507715495310000E+01
         A_LIST     2.1801346360420001E+02   -4.2409257583420001E-01    9.9949268450990001E+00   -1.1507715495310000E+01 \
             3.0958394565589998E+02
         &THERMOSTAT_ENERGY
              -1.9154532628557572E-03
               1.9934715508823060E-03
              -7.8875666464279712E-05
              -2.8989673870962159E-03
              -1.1525984848390315E-03
               2.6716401638557279E-03
              -3.1431589408657517E-03
               6.3508631781007349E-04
               4.0844440635496530E-03
              -1.2756754514146376E-03
               3.2737871943069150E-03
               8.9230241226560087E-04
               3.8934169156072964E-03
              -1.8930967667755050E-03
               3.4835593159764609E-04
              -2.4965806859236005E-03
               4.0650559526709418E-03
              -2.0731726044374657E-03
               2.3244150536631441E-03
              -1.1231412435132007E-03
              -2.6702902364659890E-04
               1.0664207811556853E-03
               9.4529492735686145E-05
               2.6125045091608297E-03
              -4.4434479338727392E-03
              -2.2392108842515393E-03
               3.3982673261247621E-03
               1.2190245117748679E-03
               6.9196288454589742E-04
               3.2011136328792165E-04
              -8.7524464070463893E-04
              -1.9568287151748090E-03
               7.2511340771480733E-04
              -3.6340503632142679E-04
              -2.3642586041940283E-03
               2.3064636185382704E-03
              -2.8085541885700306E-04
               2.0381993953988686E-04
              -1.9202488598977292E-04
               7.1255664395737997E-04
               2.0682286032446136E-04
              -2.8628997049124443E-03
              -1.0231499313885311E-03
               2.7030419334884560E-03
              -2.2225013497035252E-03
               1.7483508240343684E-03
              -1.4926054563397931E-03
               1.6908068294961377E-04
              -1.2833089191043598E-03
              -4.8467420937978558E-04
               2.1091173288632190E-03
              -3.9466155136828689E-04
              -1.8879903351444486E-03
               3.7995112931391251E-04
              -2.3132062762200815E-03
              -6.6051410728350658E-04
              -1.9619297121424364E-03
               1.5643230823388725E-03
               2.5321493369108153E-03
              -1.8801464860780468E-03
              -4.5067519223667812E-04
               3.6750402263919877E-03
              -1.4522797239831739E-03
              -1.5772564692143130E-04
              -9.1990380546516258E-04
               1.2008405800235009E-03
              -4.2229528527019953E-03
               2.5841590140507527E-03
              -1.4101394919459498E-03
               1.8253467359106966E-03
               1.9316413196626579E-03
               1.0513754622601130E-04
              -3.1242738464448416E-03
               1.1129512597598181E-03
              -2.1197064991389481E-05
              -1.2511429048443629E-03
               3.0787661159222625E-04
               2.2454245588181994E-03
               5.4730846720274454E-03
              -1.4148202730183304E-03
               8.4665441279494532E-04
              -3.3853352704807393E-06
              -2.3567127261627449E-03
              -1.5534722859859981E-04
               3.4530048893626417E-03
               1.5298099280657088E-05
               1.0318197176224023E-03
               1.6355464160997066E-03
               4.6666010446422740E-04
              -1.3452083969176861E-03
               2.8223618014029950E-03
              -3.1231336989333532E-03
               9.5130784974276875E-04
              -2.2136190895761696E-04
              -4.6492788977421391E-03
               4.4967740006718250E-04
               2.1233255933669244E-04
               8.5161191580136113E-04
               2.1912610224118722E-03
               1.1193920704632406E-03
               7.6327533481634631E-05
              -1.7196680283919328E-03
              -1.8836453147253108E-04
               8.9133259441400185E-04
               4.9949697246227187E-03
              -2.8801748631333453E-03
              -9.4780257292769116E-04
              -1.7040906004719034E-03
               3.3043164581944471E-03
              -6.2395383058271177E-04
               5.3424856544508651E-03
               4.4946641767563717E-04
               4.9843959448237862E-04
              -7.9635967780542134E-04
              -1.1541940502655841E-03
               3.1422802764025171E-03
              -9.1616711569197824E-03
               1.9108303528015407E-03
              -8.6292708999220519E-05
               1.3451391446699082E-03
              -2.8851259226301824E-04
              -1.1669989159650790E-04
               3.5916790414809189E-03
              -9.4175616410548146E-04
              -3.5049638660806857E-03
               4.1747044834905295E-04
               1.2676686716229992E-03
               4.0989520634202017E-03
              -1.0152536653871814E-03
               1.9860229041201421E-03
              -2.1477320689195275E-03
              -2.2277337364325846E-03
               2.5816464299479133E-04
              -2.5344536728893990E-03
              -1.4173776415519086E-03
              -1.2497413803764801E-03
              -2.2236898273589739E-03
              -1.6680891808162125E-03
               1.1404620271593890E-04
               1.0561558995956866E-03
               2.9176668720476183E-03
               2.3089012517300239E-03
               2.5958251465930336E-04
               1.3973916151460613E-04
              -1.5864635416298332E-03
               1.0053687500860562E-03
               1.3747134665107175E-03
              -3.0051826330189900E-04
              -3.1746692067314494E-03
               2.9758958032145093E-03
               5.6836970099496779E-04
               1.9831482654496251E-03
              -1.8338154670449584E-03
              -5.3703380492836779E-04
               1.0144881430505929E-03
              -8.0750254194661181E-04
               1.9426718233371137E-03
              -8.7094099777657659E-04
              -1.2603199793055691E-03
              -2.7853338474368697E-05
              -2.4125818008967361E-03
              -3.1432738281204284E-03
              -4.3656789771012586E-04
              -1.8739938670066583E-04
               1.9125856780194531E-03
               2.8102857120719856E-03
               2.9311592271836070E-03
               9.5822160471931552E-05
              -5.4202782167496535E-03
               2.3907599738170560E-04
               6.1644201946055581E-04
              -5.7963528114535917E-04
              -1.5031798180130341E-04
              -5.8709339689014630E-04
              -3.8206380130853762E-04
              -2.8118339563709322E-03
               5.8595490009465589E-04
               2.1329947174225914E-03
              -2.9192829693335106E-04
               2.3533319319604049E-03
               3.7526529604929050E-04
              -1.3949092530804836E-03
               1.5344834469123050E-03
               6.1205911453079259E-04
              -7.6379526147940806E-04
               6.7688159948073312E-04
              -1.2902292933947971E-03
               8.3985843475287624E-05
              -1.0131344632060260E-03
               2.2609099849168774E-04
               1.2564817777804560E-03
              -5.0583764593349970E-04
               3.4212281670459930E-03
              -3.3082888163893059E-03
               6.5481543591847991E-04
              -3.4236334246937651E-03
              -6.2326051908075781E-04
              -1.5036850417590405E-03
              -1.3219677474725654E-04
              -9.7124525730743711E-04
               7.3244709853611514E-04
              -5.4204614422861984E-04
               1.7187001287788085E-03
               1.3040852237989483E-03
              -3.3855313047869259E-03
               4.1376061369719386E-04
              -1.3949126000300403E-03
               1.2383851876073982E-03
              -1.4086342255444514E-03
               4.0470871909958923E-03
              -1.0240791156919335E-03
              -4.9058709142780934E-04
               2.0254435736108108E-03
              -3.8788927079595444E-03
               3.0817224235939397E-03
               4.4994783221324981E-03
               1.0364512046577442E-03
               1.0572168106132509E-03
              -1.2441194103673130E-03
              -2.6412818436887943E-03
               3.4144656199348719E-03
              -8.0206684206460873E-04
               1.5539032456941336E-03
               1.1102959610305399E-03
              -1.9215920278176559E-03
               6.3738810893697979E-04
               4.6075331751406116E-04
               1.2102782884096082E-03
              -1.0668188056776775E-03
               4.3871831683052458E-03
              -6.5975070284838818E-04
               3.3006450588844603E-03
               1.0100006848764909E-03
              -3.8209004323504540E-06
               2.7839228593810987E-03
               9.8131101826019599E-04
              -3.2886063865862425E-03
               1.8974241106640185E-03
              -1.6861848336085384E-03
              -4.0494008631095893E-04
               7.3602641365556334E-04
               8.8581398314808383E-04
               1.5406422442400688E-03
               1.9386405875787254E-03
               1.0293268256948756E-03
               1.2070141410575725E-03
              -9.3770312974055989E-04
              -7.2436369878987894E-05
              -1.9967110241020402E-04
              -2.3529913324376039E-03
              -2.8870308241156083E-05
               2.8687668314621656E-03
              -2.9779647577830424E-05
               7.0253801145597243E-05
              -1.4654697426700473E-03
               1.6419005883818707E-05
              -4.3140845869267704E-03
              -2.7973224884662580E-05
               7.3975776446146414E-04
              -2.0829052118729254E-03
               2.0815516357679531E-03
               2.1407739098160392E-03
               2.0648878315871698E-03
               1.6732859914343466E-03
              -2.1084546557068287E-03
              -8.3396819921231161E-04
              -9.1870534895769577E-05
              -4.5165196647036670E-04
              -5.1187141086354317E-04
              -2.5415854569306221E-03
              -2.1688767505955138E-03
              -1.8784553947808365E-03
               1.0977041607622994E-03
              -2.0564092069779195E-03
               1.7034253670255837E-03
               1.7669823657379252E-03
              -6.4789192092971279E-03
              -1.2506201947794216E-03
               1.7655127257510926E-03
               1.1691459058356776E-03
               3.3849831064324183E-04
              -7.3484905909301020E-04
               2.6595896988216268E-03
              -4.4610585829056289E-04
              -4.8477887375365843E-03
               6.0409339245123047E-04
              -3.8689407232983123E-03
              -1.4752689462059171E-03
              -6.0384881092924339E-04
               7.6471906829210404E-04
              -4.7126658127887781E-07
               3.5455271740594081E-03
              -2.4803959234275218E-03
              -1.2344638179983590E-03
               1.4292913803464291E-03
               1.8585119488646231E-03
              -1.5613983430824130E-03
              -1.1667009271081380E-03
              -3.0093541711188661E-03
              -6.7561067821750805E-05
               2.2759926202619647E-03
               5.2552934257191512E-04
              -4.3942209135766803E-03
               1.4739803816311101E-03
               4.8574330754752844E-03
              -1.7708841179548225E-03
              -1.0379576795475989E-03
               3.8494991554617261E-04
              -1.5811577388466108E-03
               1.6672058531084083E-03
               4.9328789235984858E-04
              -4.3055332346856158E-03
               1.8848279720902251E-03
               1.9990855106954870E-03
              -1.1302132865773301E-04
               1.9215206244467215E-03
               5.1329613563665349E-04
               4.7557840761692617E-03
               6.2944026259214409E-04
              -2.4367924425966461E-03
               1.4919365232565179E-03
              -3.4903216477396378E-03
              -5.0120185378764344E-03
               2.7117596531366470E-03
               1.4323071248468420E-04
               7.3273775882112097E-04
               2.6342583882469467E-04
               1.2596556956072081E-03
              -6.8175825321567876E-04
              -1.4914284716603459E-03
              -3.0446981456416088E-03
              -1.0656906056012482E-03
               8.2243072131026279E-04
               2.3900722689051599E-03
               1.0976953350328980E-03
              -5.7373091429888362E-04
               1.2189111209464825E-03
               1.7269658439728695E-03
              -9.7682991538715043E-04
              -1.1015731628940455E-03
               2.8044301890955937E-05
               6.5828330008610002E-04
               3.0143509349970137E-03
               1.3548271004415586E-03
              -4.3171261721546060E-04
              -4.9858568335637427E-04
              -4.1246861438183348E-04
              -1.5188769008531180E-03
              -4.1555590520251539E-04
              -1.9234705816586373E-03
              -9.4211493742624131E-04
               4.0234289447154173E-04
              -2.5857840231480081E-03
              -2.6719715323961771E-04
              -2.9764718087860816E-03
               8.4270188279138498E-04
               2.1980092308994045E-03
               7.1421114801409975E-04
              -7.8785481257360448E-04
               5.6317168783973056E-03
              -4.0817107774811549E-04
              -1.6968025631671770E-04
              -1.9485264567238856E-03
              -1.7453746542648581E-03
               9.7683342345357763E-04
              -1.3600053446088073E-03
               2.0634927796634854E-03
               1.2422168660178460E-03
               8.7422330281139611E-04
              -4.3342607871754203E-04
               2.3870594918211589E-03
              -2.7652415709283227E-03
               2.9987846269011989E-03
              -1.2267360237971814E-03
              -1.6606372709379329E-03
              -3.8777392736124858E-03
              -4.1356671981255589E-04
               3.1159727005274163E-03
               1.7609612499253919E-03
               9.9993930256136641E-04
               1.8225161000410962E-03
               2.8929896727956004E-03
               1.8981152682698824E-03
              -6.8324581291255169E-04
              -9.1554842837117782E-03
               1.7833721706124704E-03
              -1.7993615113028874E-05
              -4.6220954842305919E-03
              -1.0233008930366505E-03
               7.8633814362554053E-04
               1.6512896712284569E-03
              -2.1863782234332893E-03
              -4.9883700188723204E-04
              -7.4770545834315367E-04
              -4.2574615099438681E-03
              -1.2390122676320440E-03
              -2.7033961968993222E-03
               2.1392696581992057E-03
              -7.6261985131709687E-04
              -1.7731405158565609E-03
              -5.3725660061409867E-03
               4.0833173395565664E-03
               9.3333048933059309E-04
              -2.5412785277101921E-03
               3.2239831418778477E-03
               3.2432518865723489E-05
               4.7655551491973503E-04
               2.2088626917056123E-03
              -2.8264238539694826E-03
              -2.6246566608842162E-03
              -5.2794289639032578E-04
              -5.3084351438170718E-04
               1.2253406386545918E-03
               4.4918786300600314E-03
              -3.4112966215209088E-03
              -3.5201710338503652E-04
              -4.5508502763932798E-04
              -2.7841611980852013E-03
              -3.2283354562583711E-03
               7.6716241356773766E-03
              -1.0888319367072416E-04
              -5.0802650826244241E-04
               1.9752594616431690E-03
               2.2421520594747826E-03
              -1.3740554700631511E-03
              -2.2825253227000642E-03
               3.5751284147915257E-04
              -3.1248956810880604E-03
               7.2236434909521982E-04
              -3.4966040257799650E-04
               2.0622852296974135E-03
              -4.6480260632519969E-03
               2.0605347179087864E-03
               5.4916696624080581E-04
               1.3359128210575957E-03
              -5.3956994659813892E-03
              -1.6520408947229099E-03
               6.4081148524026477E-04
               4.9031476901477576E-03
               1.7658071756933022E-03
              -7.1181215966350710E-03
              -1.3309137045752200E-03
              -2.0149311329634976E-03
               1.4676972989941966E-03
               1.1983905759351580E-03
               3.6930669709394162E-03
              -7.7779240137730774E-05
              -3.7946334706315593E-03
               2.3085417134561072E-04
               2.8700729240055140E-04
              -1.4107986613190147E-03
              -2.1401278407349495E-03
               2.9540332307452706E-04
               1.8900195878541676E-03
              -3.2908743940775979E-03
               3.4029395113064178E-04
               7.5607825053359296E-03
              -8.1935178506102431E-05
              -2.6662521806279115E-03
              -3.7660651834276241E-04
               1.3093267195462698E-03
              -3.2699494090254456E-04
              -3.2774532096945891E-04
              -2.1851190143659179E-03
               1.1288628104627507E-03
              -1.2971891176157355E-03
              -1.4455024681721341E-03
              -1.4474588573510380E-03
               1.0384722030771700E-03
               9.4628102830698153E-04
               7.8422454887243950E-05
               2.3346224634020482E-03
              -2.3030334820061081E-03
               1.3278504347196648E-03
               3.0816752366688788E-04
               3.3770084880470996E-03
               1.6566837030455119E-03
              -1.9104955375059437E-03
              -3.8297376552260185E-04
               2.5568832902156248E-03
               5.9191577092515763E-03
              -4.9491449870461422E-04
              -1.5192620492530755E-03
              -1.0878708262658781E-04
              -1.2005766724486536E-04
              -2.4663999409242393E-05
              -3.1708310756410667E-04
              -1.4894407316985007E-03
              -3.5135471799239461E-04
               6.4218500912497896E-04
              -3.6629121202547447E-04
               1.5457187035702023E-03
              -1.6654618822261062E-03
               1.4907422874370195E-03
               4.1692274804719679E-03
               1.9534458486572173E-03
              -9.0029555350657528E-04
              -1.9933012478292288E-03
              -8.8143508454935747E-05
              -3.8241258992669615E-03
               3.4387799226159501E-03
              -1.4135156764407233E-04
               2.2192927624996605E-03
              -3.9838594002218411E-03
               5.3241348768266891E-04
              -1.7498978034445659E-03
               1.0040330419820557E-04
               4.2899997678337337E-04
               1.8835609969982420E-03
              -6.9857665951308771E-04
               6.8916155913591138E-04
               5.7573189344301253E-03
              -4.4528376645289695E-03
               1.2085475992478292E-03
               3.8336663017466842E-04
               9.7619628341387280E-04
               2.6404039997265285E-03
              -1.8262032293952317E-03
               5.6155796052367261E-04
              -2.5553114208532238E-04
               5.2953540024179081E-04
              -6.1401755162424198E-03
              -3.4076065323013314E-04
               5.5344521021490696E-04
               1.3134858411439037E-03
              -3.0865937409614764E-04
               1.1295321262801560E-03
              -1.9194475616622390E-03
               2.7759972483258634E-03
               9.1756877159866420E-04
              -5.0687077389676848E-04
              -8.7757229233599468E-04
              -1.1761535482851520E-03
               2.5735466336846162E-04
               1.4691168599048306E-03
              -3.7614938086206729E-03
               2.0508082064156236E-03
               5.8326535327988518E-04
              -2.2910950188723433E-03
               5.0129423449598654E-04
              -1.8493357774213264E-04
               2.5787812261551715E-04
               2.9262569342582436E-03
               1.1247906904919489E-03
              -8.5892659836650943E-04
              -5.0218798394322634E-04
              -1.8165967222594863E-03
               1.1594993308016424E-03
              -1.2858740169549765E-03
               1.0615553580493468E-04
              -2.5084000849631975E-03
              -1.0590589222813395E-03
               3.9446971746205721E-05
              -2.4004050095132214E-03
               3.3512425106725749E-03
              -2.7276344672109228E-03
               2.9572323341934123E-03
               2.8859182358417549E-03
               4.5311250013739379E-03
              -1.6483017169972275E-03
              -4.5959828225604387E-04
              -2.4459291870523609E-03
              -3.8291531408504048E-03
               4.0952344089524133E-03
               3.1491007911096849E-03
               2.4827513591803171E-03
              -4.1931486076822646E-03
               6.6480701793703045E-04
               4.8794281266907217E-04
              -2.4172758516282033E-03
              -2.7688329195577062E-03
               2.3778224953952955E-03
               7.4669208735635823E-04
               5.4286461060081949E-03
              -3.2510872520018562E-03
              -1.2183259368885846E-03
         &END THERMOSTAT_ENERGY
         &RNG_INIT
Wiener process for Thermostat # 1        1 F T T  -1.1179793801306914E+00        3260462043.0        3738863024.0        4227759342.0        2458866460.0        3146316497.0        2140681723.0             12345.0             12345.0             12345.0             12345.0             12345.0             12345.0             12345.0             12345.0             12345.0             12345.0             12345.0             12345.0
Wiener process for Thermostat # 2        1 F T T  -3.0466115937105637E-01        4027368730.0        2379463450.0        3547405505.0         804117370.0        1485097215.0        3198194954.0        3692455944.0        1366884236.0        2968912127.0         335948734.0        4161675175.0         475798818.0        3692455944.0        1366884236.0        2968912127.0         335948734.0        4161675175.0         475798818.0
Wiener process for Thermostat # 3        1 F T T   1.5230516085176755E+00        3538871386.0        3250312947.0        2109309823.0        1299990319.0         252948743.0        3992689645.0        1015873554.0        1310354410.0        2249465273.0         994084013.0        2912484720.0        3876682925.0        1015873554.0        1310354410.0        2249465273.0         994084013.0        2912484720.0        3876682925.0
Wiener process for Thermostat # 4        1 F T T  -1.6399845444643824E+00         608131832.0        3600381874.0        2730280304.0        2954401126.0        2548730002.0          20246689.0        2338701263.0        1119171942.0        2570676563.0         317077452.0        3194180850.0         618832124.0        2338701263.0        1119171942.0        2570676563.0         317077452.0        3194180850.0         618832124.0
Wiener process for Thermostat # 5        1 F T T   9.0423900924922962E-01         336323507.0         601333209.0        2135583253.0        3363158562.0        1079814249.0        2500560162.0        1597262096.0        3906379055.0        3312112953.0        1016013135.0        4099474108.0         275305423.0        1597262096.0        3906379055.0        3312112953.0        1016013135.0        4099474108.0         275305423.0
Wiener process for Thermostat # 6        1 F T T   5.8875092525926165E-01        3595179534.0        1745746245.0        3897790656.0        2894727474.0        3144767509.0        3973722426.0          97147054.0        3131372450.0         829345164.0        3691032523.0        3006063034.0        4259826321.0          97147054.0        3131372450.0         829345164.0        3691032523.0        3006063034.0        4259826321.0
Wiener process for Thermostat # 7        1 F T T   6.8097569518056833E-01        1161644332.0        2183366759.0        2897968802.0        2088078206.0        4054931419.0         649634154.0         796079799.0        2105258207.0         955365076.0        2923159030.0        4116632677.0        3067683584.0         796079799.0        2105258207.0         955365076.0        2923159030.0        4116632677.0        3067683584.0
Wiener process for Thermostat # 8        1 F T T   2.7320634943137388E-02        1323102203.0        2642194398.0         554961434.0         750144553.0         488983542.0        4130458130.0        3281794178.0        2616230133.0        1457051261.0        2762791137.0        2480527362.0        2282316169.0        3281794178.0        2616230133.0        1457051261.0        2762791137.0        2480527362.0        2282316169.0
Wiener process for Thermostat # 9        1 F T T  -7.8016604263534561E-01         830616453.0        2719478473.0        2597171631.0        1801143765.0        1205299928.0        1712756502.0        3777646647.0        1837464056.0        4204654757.0         664239048.0        4190510072.0        2959195122.0        3777646647.0        1837464056.0        4204654757.0         664239048.0        4190510072.0        2959195122.0
Wiener process for Thermostat # 10       1 F T T   4.4403894111982584E-01        2862858361.0         577298176.0        1352230807.0        1285012168.0        2435763465.0        4210526530.0        4215590817.0        3862461878.0        1087200967.0        1544910132.0         936383720.0        1611370123.0        4215590817.0        3862461878.0        1087200967.0        1544910132.0         936383720.0        1611370123.0
Wiener process for Thermostat # 11       1 F T T   6.2331396600280053E-01        3493514167.0         892430928.0        1928427218.0         535045005.0        1249159201.0        2748826654.0        1683636369.0         362165168.0         814316280.0         869382050.0         980203903.0        2062101717.0        1683636369.0         362165168.0         814316280.0         869382050.0         980203903.0        2062101717.0
Wiener process for Thermostat # 12       1 F T T  -4.3171064987736996E-01         307577313.0        1385701259.0        3558142377.0        2280931025.0        4272036952.0        2786826846.0         272317999.0         166758548.0         310112982.0         201045826.0        1680231254.0         118290799.0         272317999.0         166758548.0         310112982.0         201045826.0        1680231254.0         118290799.0
Wiener process for Thermostat # 13       1 F T T  -2.3590686593753891E+00         613253312.0        1414805140.0        3426902831.0        1465512062.0        3981625704.0         777019497.0        2245755202.0        1652682525.0        2865544364.0         721509566.0         209733568.0         592362218.0        2245755202.0        1652682525.0        2865544364.0         721509566.0         209733568.0         592362218.0
Wiener process for Thermostat # 14       1 F T T  -1.8648714177490151E+00        3755908894.0        2828160731.0        3859479936.0        1457667535.0        1369342363.0        2526994374.0        3003961408.0        3529909391.0          14538032.0        3603919910.0         566682685.0        1235016484.0        3003961408.0        3529909391.0          14538032.0        3603919910.0         566682685.0        1235016484.0