 # Version information for this restart file 
 # current date 2024-11-21 20:40:46.605
 # current working dir /scratch/fh2268/comp-lab-class-2024/Week12-IntroAIMD/Runs/Proton
 # Program compiled at                              Sat Dec 12 18:27:15 EST 2020
 # Program compiled on                                         cs001.nyu.cluster
 # Program compiled for                                                nyu-intel
 # Source code revision number                                       git:8c64c6e
 &GLOBAL
   PRINT_LEVEL  LOW
   PROJECT_NAME WATER_SIMULATION
   RUN_TYPE  MD
   WALLTIME 21600
 &END GLOBAL
 &MOTION
   &GEO_OPT
     OPTIMIZER  BFGS
     MAX_ITER  100
     MAX_DR     3.0000000000000001E-03
     &BFGS
     &END BFGS
   &END GEO_OPT
   &MD
     ENSEMBLE  NVT
     STEPS  2000
     TIMESTEP     4.9999999999999994E-01
     STEP_START_VAL  47
     TIME_START_VAL     2.3500000000000014E+01
     ECONS_START_VAL    -1.1027999833048332E+03
     TEMPERATURE     3.0000000000000000E+02
     &THERMOSTAT
       TYPE  GLE
       REGION  MASSIVE
       &GLE
         NDIM  5
         A_SCALE     1.0000000000000000E+00
         A_LIST     1.8595758612559999E+02    2.7263853498399998E-01    1.1526100454610001E+01   -3.6414578262600003E+01 \
             2.3173375816020001E+02
         A_LIST    -2.7809524712060002E-01    8.5951591808710006E-05    7.2189048017650004E-01   -1.9844539343859999E-01 \
             4.2409257583420001E-01
         A_LIST    -1.4825808131210000E+01   -7.2189048017650004E-01    1.3590902121280000E+00    5.1498896280349999E+00 \
            -9.9949268450990001E+00
         A_LIST    -1.0372189126880000E+01    1.9844539343859999E-01   -5.1498896280349999E+00    2.6661910891169999E+01 \
             1.1507715495310000E+01
         A_LIST     2.1801346360420001E+02   -4.2409257583420001E-01    9.9949268450990001E+00   -1.1507715495310000E+01 \
             3.0958394565589998E+02
         &THERMOSTAT_ENERGY
              -9.8423670971296796E-04
              -1.6000625463859696E-04
               5.3141953709712826E-04
              -2.4275159518236077E-03
              -1.3769080304404321E-03
               2.5860483037638002E-03
               1.1291540950624337E-04
               2.3093158987789390E-03
               5.3626592971541009E-04
               1.1769793525029941E-03
               8.9133714427890682E-05
               4.5161287987984943E-04
               3.8519148335345163E-03
              -5.7834739468437887E-05
               6.6556338713859525E-04
               2.3189753983861257E-04
               1.4270250020938097E-04
               1.1775261471138065E-03
              -1.0658248568093674E-04
               2.9272906165174397E-04
              -5.1355161114593182E-05
               1.2961404705515169E-03
              -5.2714674629443493E-04
              -7.9422989502134255E-04
               4.6431711106551617E-04
              -6.7088351102798788E-04
              -2.0299414425588774E-04
              -9.4782950097450436E-04
               1.4328114721735496E-03
               5.3846560505630000E-04
               1.6144832814586453E-03
              -4.4174699984978394E-04
              -2.8034896091035284E-04
               8.0882261588811216E-05
              -4.1919535158439179E-03
               6.5470406712639644E-04
               6.8881665813287770E-04
               2.0132326021546603E-04
               2.0398602153492436E-04
              -2.8095497466183496E-05
              -1.6286367819650521E-03
              -2.2612773270473557E-03
              -2.3295441940987885E-03
               2.7934076305540208E-03
              -1.2537414976990765E-03
               2.0830427832255896E-03
               3.0812626853768984E-04
              -1.5798595288364391E-03
               1.6130544229596680E-03
               4.2556872397062567E-04
              -1.6377673269545162E-03
              -4.9093090120801977E-04
              -5.7107269002786367E-04
              -7.3249254311870751E-04
              -6.8297906657441699E-04
              -3.7799725094249376E-04
              -1.9472685782277551E-04
              -1.0660153307526829E-04
              -1.9843154446415878E-03
              -3.9202159249217717E-04
               9.8619650760857274E-04
               1.6420810757808095E-03
               5.7928791768571252E-04
               1.4948008951667390E-03
              -6.4011782422126334E-04
               1.1607250006495443E-03
              -1.5246643248517574E-04
              -3.6757003838119119E-04
               1.6890105433649851E-03
               8.1968850702790886E-04
              -1.1209164987608332E-03
               1.0953265928141088E-03
              -5.4454513298462701E-04
               2.4020003257889172E-04
               2.6861931150534398E-04
              -3.6578320266497823E-04
               1.0983275066868414E-03
               1.6451802958414156E-03
               4.4613383220194151E-03
              -8.3166379620526877E-05
              -5.3615466281559209E-05
              -2.8293827944908312E-04
              -1.5459324560933291E-04
              -1.1724017312849675E-03
               3.1254771100118652E-04
               7.7392946069468750E-04
              -7.3923645308207543E-04
              -2.0643165060084843E-03
              -4.8691388571852560E-04
              -5.6693074851204856E-04
               2.1074519776989788E-03
               3.8489145145552636E-03
              -2.4253994199515596E-03
               2.5314532838200201E-04
              -4.5786511070053664E-04
               1.0173210196533016E-03
              -4.9908530513341465E-04
              -1.4351460804208546E-03
               5.3082067151697949E-04
               4.7404738842563173E-04
              -1.6158872191658004E-03
              -1.3456045844557606E-04
              -3.4149860090310915E-04
               1.9663868401128704E-03
               3.8697194855794449E-04
               6.2609310851950858E-04
               1.6381967486859173E-03
              -2.1021202538959536E-06
               7.0704526126293252E-04
               5.4088052776792646E-04
               5.6565831170810391E-04
               5.5189943565140190E-04
               1.0924145966561291E-03
               4.9302268006989251E-04
               1.4129561731288298E-03
               2.1949397302100460E-03
              -7.8842809420851603E-03
               1.4896733381703586E-03
               6.8172942716458469E-04
               4.9602768722675371E-04
              -7.0413080341268406E-05
              -8.0580113274447425E-04
               2.4332653318901985E-03
              -1.1703788010168279E-03
               1.0399222761837967E-04
              -2.3427954838185017E-03
              -1.0037296693591366E-04
               2.1655617795274117E-03
              -2.1747335267646294E-05
              -9.7001450338362639E-04
              -3.4559476997323051E-03
              -2.2318015162535862E-03
               2.5342818338818397E-03
              -1.5290850762745953E-03
              -2.2953396348629287E-03
              -1.9270057608550902E-03
               9.9498971633269341E-05
               4.8559401206271275E-04
               6.1404227825474192E-04
               4.4227564629267872E-04
               2.4354587430920746E-03
               3.0708990506598540E-04
              -1.0895359448679987E-03
               3.3987736203330713E-04
               1.5594456639382885E-03
               1.8032362450478832E-04
               2.0155808610869807E-03
              -1.8638952089912472E-04
              -4.8402928941291895E-04
               8.4938706509319597E-04
              -7.7743049930967180E-04
               3.3685367715324154E-04
              -3.8827894549834264E-04
               8.7764725585534891E-04
              -1.5542471286713148E-05
              -1.3032090371962489E-04
               3.8598491763822400E-04
              -4.4320659134673647E-04
               5.3372613575423272E-04
              -8.6696094155012845E-05
              -8.0794966394466886E-04
              -8.2121272298227451E-04
              -1.4240713466990140E-03
               4.1019539064879264E-04
               2.0712564646672093E-03
               1.0927513437474878E-03
               6.8869483513904007E-04
               1.0742361404248203E-03
              -3.8306628401535299E-03
              -2.1142503930237220E-04
               6.4238201869604964E-04
               4.9965941382685143E-04
               5.0301589247132676E-04
               2.7713253260914436E-03
               3.1972077189451685E-04
               2.1901230071500106E-03
              -9.0461013450249825E-04
              -3.0096888546022348E-03
               3.1279876354657625E-03
              -1.0361007975762831E-03
               2.1520240191015994E-03
               3.2228959109877166E-03
               1.9524874667129773E-02
              -5.4675837282882190E-04
               1.1750410718535712E-03
              -4.2946489641649621E-04
               1.5134721735561478E-03
               4.1382630493941384E-04
              -3.5792412781150583E-03
               1.6014013792970040E-04
              -3.1199162051985933E-03
              -1.2988187519052057E-04
              -1.1665854937543399E-05
              -1.0669207529173791E-03
               6.0685839402158125E-04
              -1.3859057952878961E-03
               2.5368265423934703E-03
               1.2585791845239995E-03
              -2.2567076557626877E-04
               1.9485934831130324E-03
              -1.5867402365059196E-03
              -2.2608325883182083E-04
              -3.3549577978329013E-04
               1.5307672108479074E-03
              -3.2089716219143622E-03
               1.1212416068342339E-03
               1.1272866753022867E-03
               5.9132387963156099E-04
               1.5863154188880879E-04
               5.9166948284438477E-04
              -6.1752771051098608E-05
              -2.4807345151104732E-04
               9.3681400282762193E-04
              -4.2574837019057350E-04
               1.9056564533239837E-03
              -1.3217871095815500E-03
              -1.8114975282653201E-04
               9.6356450424863707E-04
               8.8117232390764826E-04
               4.9463567539465426E-04
               4.3687642825477430E-04
               9.1202239694287675E-04
               4.7551066971601713E-04
              -9.8832718885374276E-04
               7.9427870928605896E-05
               8.0666747686533482E-04
               1.5005291922978463E-03
              -2.9527321245121172E-03
              -5.9507021551110382E-04
               1.2490768518088882E-03
               9.7890803611667076E-04
              -5.0487473468832493E-04
               2.5110431133520646E-04
               1.8259583870694897E-03
               7.7202655488504577E-04
              -1.9507043873114762E-04
              -2.3679579014763042E-03
              -1.0942928389287253E-03
               1.3302660396334910E-03
              -9.9407781390555781E-05
              -2.0687633449263396E-03
              -1.3976024215116376E-03
               2.0613813664876741E-03
               2.2203918319135666E-03
               1.6718118636204496E-04
              -1.2632728679853749E-03
              -3.9002068834541586E-04
               9.7111246710347265E-04
              -4.8931483132226095E-04
              -6.0875931849202947E-04
               7.4310302381255214E-04
               7.6196205683147456E-04
              -1.0299707536312337E-03
               6.0977902870341905E-04
               6.2578952898879945E-04
               2.6252850942908322E-04
               5.2560758998190319E-05
              -2.1019565461951649E-03
               4.9510622152072400E-04
               1.2944112561759638E-03
              -1.0717454694509877E-03
               8.2631099762241916E-04
              -1.2115863600138668E-03
               6.5341743145958930E-04
               1.5437942228657094E-03
              -2.5432495416107697E-04
               1.1739950250879742E-03
               5.1602562233266144E-03
              -1.1142201980310874E-04
              -2.2238961929482229E-03
              -1.0014461721090510E-03
              -3.6705374127317066E-04
               5.1096531911362757E-03
              -2.6281903086283883E-04
              -1.2128462358301575E-03
              -3.3752674660290428E-04
              -1.2330144154295885E-03
              -9.8177660746991374E-04
               1.2452434463434284E-04
              -4.6498831980319001E-04
               5.6316497236467828E-05
              -1.0370377662428077E-03
              -5.7145738502309548E-04
               1.4448383124725365E-03
              -3.2418418490073354E-04
               2.1046403206922105E-04
              -3.6478757431439074E-04
              -2.2697653025129230E-04
               2.0816283647051445E-04
               4.2032149551931497E-03
               4.8724139257809744E-03
              -2.4172654321210588E-04
              -4.9777663234045594E-04
              -4.3683562445343156E-05
              -1.4824255562601299E-03
               2.5219423974707977E-03
              -6.0899322712714538E-04
               1.1965354685360581E-03
              -1.4473583448185001E-03
              -3.7205579911245491E-04
               4.8611785864835543E-04
              -4.0835444231115812E-06
               4.8148617698426247E-04
               2.2249505643102707E-03
               2.9773727812243921E-04
              -2.3739996454568107E-03
              -2.1812771922660977E-03
               1.6644846072447746E-03
              -4.6468615170929542E-04
              -2.2796116961837634E-03
              -5.0087595622358004E-05
              -2.1256952116259384E-04
               4.5289070236353675E-04
               2.5815797942186025E-04
               1.6183994787034972E-03
               8.1899249049372446E-04
              -1.7011759716233316E-04
               1.3620795062960565E-03
               7.8471024076603828E-04
               2.4770255470101580E-03
              -1.4308212056824469E-03
               1.4954631484270120E-03
              -1.4443912401168788E-03
              -7.0196089687167280E-04
               9.7675620801756504E-04
              -2.7301785728326491E-03
              -3.9076523808505612E-04
               8.4965195538304426E-04
               7.8263692532276607E-04
              -1.5816192821547226E-03
              -1.9098085280645511E-03
               9.7776246812864465E-04
               1.6986970306352026E-03
               2.0517137367973585E-03
               1.9548632019374950E-04
              -2.1098264724023520E-03
              -4.1692503163241485E-04
               4.3987921234957646E-04
              -2.0426213500207845E-04
               1.4506556777237915E-03
               6.9001137452046968E-04
               1.7144598600739975E-04
               4.1501774517242063E-03
               1.1417739186566800E-03
              -8.1822817218039174E-04
              -4.7578743342340077E-04
               3.5619745275813127E-04
              -8.4438691243937203E-04
               1.5550517634921105E-03
              -2.5040806107977510E-03
              -1.0471090790387199E-03
              -8.3552412003820369E-04
               8.1171508536212488E-05
               1.9254056903974013E-04
              -3.2083644805668259E-04
              -1.2211186438297391E-04
              -2.3598538045488675E-04
              -4.2710832987256074E-04
              -2.9981076451329313E-04
              -2.5915701782599333E-05
              -3.3058967543264572E-03
               4.6277816283814049E-04
               5.9986733876530641E-04
               5.8664721007638211E-04
              -5.1517276882130886E-05
              -5.3098907165913365E-04
               1.4201984224794008E-03
               9.8479701592787223E-04
              -5.7304563690094203E-04
              -2.1449291152439995E-03
               4.6511059790986281E-04
              -5.3436448765057341E-04
               1.0925016675822249E-04
              -5.9235655275185703E-04
              -1.0959549790972834E-03
               2.2410567675015753E-03
              -7.3293946629640077E-05
              -1.8870275224508277E-03
               6.1189309459675455E-04
               1.2531721925434943E-03
              -1.3887089909319470E-03
              -9.5311333379202018E-04
              -2.9608367139655949E-04
               2.4573949733764180E-04
               1.0941314215837409E-03
               1.0223008834356409E-03
               6.6265715078655756E-05
              -3.1552559164292338E-03
               2.1794588795669128E-03
               2.0752093793716133E-03
              -3.8460812846321006E-04
               4.8378636279342371E-04
              -3.6321150889121650E-04
               2.1625720403618538E-04
              -2.5682146554653948E-04
              -9.1026027894828881E-04
              -5.4172109337629277E-03
               2.6095041805064257E-03
              -2.2387420937371595E-04
              -8.1114874134082502E-04
              -7.2908220391700680E-04
               1.0089387837060853E-03
               1.1934462550721348E-03
               6.0415524639427075E-04
              -9.6292378603454027E-05
              -1.6643700914697830E-03
              -1.3141834783302862E-03
              -1.0027013732195394E-03
              -2.2389770225177895E-04
              -3.5781891091557711E-04
              -5.8036501497387425E-05
               5.7456937120767509E-04
               7.1949148068802481E-04
              -5.2441347671244333E-04
              -1.9676186621053931E-03
               2.4329451627841895E-03
              -2.9541595867502977E-03
              -5.5122434925332061E-04
              -2.9936474909522491E-04
               6.5516567837665192E-04
              -5.2593664964558382E-04
               6.0198331809574565E-04
               6.2122469366918543E-04
              -6.5023327737880510E-04
              -3.8353096693482597E-04
              -1.6562093106811714E-04
               5.8822903617699793E-04
              -2.3405501822909907E-03
              -8.8933575265330784E-05
               1.0204406242518308E-03
               3.9267829644596265E-04
              -5.6357096058456393E-04
               9.4009890924876742E-04
               5.9960603602262014E-04
               1.5577664292380502E-03
               1.3252296943292907E-03
              -3.7204377657004890E-04
              -1.6148291413204459E-04
              -8.7968930163349847E-04
               5.9182694459837548E-04
               2.1568644476882738E-04
              -2.1037474032374846E-03
               5.9683475757273263E-05
              -1.2225836574407286E-03
              -8.2677560413860912E-04
              -7.6382573373157033E-05
               1.3410794227695063E-03
              -1.2829634294392210E-03
               3.4663587765402168E-03
               1.3792660969551541E-03
               2.8609595102516263E-03
              -3.1382108424552781E-03
               1.1700612289112732E-03
               6.6972839860611206E-04
               5.5997204827709472E-04
              -6.3112315456970999E-05
               4.4062193205357650E-04
               5.5336722349957435E-04
               1.3790956590668919E-03
              -1.0659145206210841E-03
               3.5966621258418856E-04
              -3.4277941374513644E-05
              -2.7219918116022234E-03
              -9.0874950146493071E-04
               2.3530965484327860E-03
              -1.4019610949741828E-03
              -1.2711800245782882E-03
               1.0307256201437325E-06
               1.5664730084445485E-03
               6.8860188289849677E-04
              -5.9423489046790223E-04
               9.0412417230621473E-04
               1.2063675009293406E-03
               2.0597605183616591E-04
               2.1493343369162739E-04
               1.1050718693777271E-03
               1.8580443429948884E-04
               7.1039272602261465E-05
              -3.0677017298647437E-04
               1.3815756743737059E-03
               2.9002644717741098E-03
              -3.3969681697704364E-04
               1.9536850567432699E-03
               3.6676036956096551E-03
              -9.3968141497464155E-05
              -8.2574021514138186E-04
              -2.5589684887245010E-03
              -1.3326894439162323E-03
               1.0065529961225590E-03
               4.8555080459145229E-04
               1.3403536376883505E-04
              -4.4242221923227875E-04
               1.6807244353486152E-04
              -1.1114450202117598E-03
               1.1625579005885710E-03
               1.0943750199134776E-03
               3.7430690933916619E-03
               1.7935532498992786E-03
              -6.1316473236269059E-04
               4.7156649383824144E-04
               1.8365641314123805E-04
              -5.2962292810062813E-04
               5.9212839556341767E-04
               1.2803257753302216E-03
               4.7613519230289115E-04
              -2.0854709062669693E-03
              -1.0227268837597188E-04
              -1.8948553671411172E-04
               2.1637219487968216E-04
              -4.0065470295963903E-04
               7.2120583855158433E-04
               5.8464435578356425E-05
               3.5811814626515617E-04
              -2.4372766913384335E-03
               1.9461562481265752E-03
              -1.1042370248011473E-03
              -4.6442659894478753E-04
               2.5023972028488653E-03
               1.4007198078276409E-03
               1.3824109163127475E-04
               6.3497662546180733E-04
               1.4280932787223851E-04
               7.2116283101562276E-04
              -2.3237398763000256E-03
               3.4806295470995844E-04
               3.0968535619358897E-04
               1.8186390078027987E-03
               9.7505353385313024E-04
               2.0207612121055738E-03
              -1.2407255964222636E-03
               6.9391282372951557E-04
              -1.1594792858715950E-03
               6.0979816278085568E-04
              -1.9255146258491205E-03
               7.7577316156802654E-04
               1.5896217800481026E-04
              -2.8883655036028176E-04
               6.6250755317675473E-04
               3.9044277725666817E-04
              -1.4411971270086119E-03
              -6.3389488301735832E-04
              -1.9818340335197877E-03
              -1.8132570124358837E-04
              -4.7583722317332867E-05
              -3.2982411538152637E-04
              -8.4058093112964090E-04
              -6.2613215309202793E-04
               1.0998369735559031E-03
               1.0484547070735136E-03
               1.0293985931587890E-03
               1.5497707935333302E-03
              -6.1657036410359795E-04
              -5.2745513544471168E-04
              -3.9126213858371148E-04
              -7.1265550641203652E-04
              -4.0968195589394614E-03
               3.4966602708219972E-03
               3.6137453431095288E-04
               4.1316823099485974E-03
               2.2514594804010956E-03
               1.0815819796195965E-03
               1.0010252536698115E-03
              -2.0519762722659646E-04
               9.4007007610119153E-04
               3.4692011321606474E-04
               1.0101249865177416E-04
              -5.1642824410844546E-04
              -1.8117796979499560E-03
               3.6500447003314678E-04
               4.9497857540619456E-04
              -9.9271301351072216E-04
               1.9957988047719041E-03
               9.3873601041661388E-04
              -1.8843837192038736E-04
               3.2701051499337557E-03
              -1.5134227607469680E-03
               2.2539193855986754E-03
              -2.9829947689352101E-04
               1.2557569813547755E-04
         &END THERMOSTAT_ENERGY
         &RNG_INIT
Wiener process for Thermostat # 1        1 F T T   9.0462221700852619E-01        2264670536.0        4165435508.0         723170819.0        3260507562.0        1492388480.0         283332956.0             12345.0             12345.0             12345.0             12345.0             12345.0             12345.0             12345.0             12345.0             12345.0             12345.0             12345.0             12345.0
Wiener process for Thermostat # 2        1 F T T  -4.4519707353921517E-01        1101318009.0         234658991.0         199393164.0        4280160480.0        3611198860.0         882091878.0        3692455944.0        1366884236.0        2968912127.0         335948734.0        4161675175.0         475798818.0        3692455944.0        1366884236.0        2968912127.0         335948734.0        4161675175.0         475798818.0
Wiener process for Thermostat # 3        1 F T T   1.9084232403362586E-02        4290586919.0        3142733555.0        2989820449.0        1475696899.0         987410357.0        3224677422.0        1015873554.0        1310354410.0        2249465273.0         994084013.0        2912484720.0        3876682925.0        1015873554.0        1310354410.0        2249465273.0         994084013.0        2912484720.0        3876682925.0
Wiener process for Thermostat # 4        1 F T T   9.0988245983872340E-01        2596959722.0         592242608.0        3723836756.0        3825941198.0        2379508957.0          82120142.0        2338701263.0        1119171942.0        2570676563.0         317077452.0        3194180850.0         618832124.0        2338701263.0        1119171942.0        2570676563.0         317077452.0        3194180850.0         618832124.0
Wiener process for Thermostat # 5        1 F T T   1.1662462543714081E-01        4185205495.0        2998713803.0        4117317206.0        4023282432.0         706091729.0          75399510.0        1597262096.0        3906379055.0        3312112953.0        1016013135.0        4099474108.0         275305423.0        1597262096.0        3906379055.0        3312112953.0        1016013135.0        4099474108.0         275305423.0
Wiener process for Thermostat # 6        1 F T T  -4.1354215120834531E-01        3674523732.0        1182116984.0         609749417.0        1240104095.0         943515761.0         450343541.0          97147054.0        3131372450.0         829345164.0        3691032523.0        3006063034.0        4259826321.0          97147054.0        3131372450.0         829345164.0        3691032523.0        3006063034.0        4259826321.0
Wiener process for Thermostat # 7        1 F T T  -8.4616136539542697E-01         325483742.0         738198977.0        1919153808.0        1754777596.0         340915189.0         313288289.0         796079799.0        2105258207.0         955365076.0        2923159030.0        4116632677.0        3067683584.0         796079799.0        2105258207.0         955365076.0        2923159030.0        4116632677.0        3067683584.0
Wiener process for Thermostat # 8        1 F T T  -4.1478227316227845E-01        2161735526.0         481256180.0         205471170.0        2144766994.0        3680005391.0        2077412695.0        3281794178.0        2616230133.0        1457051261.0        2762791137.0        2480527362.0        2282316169.0        3281794178.0        2616230133.0        1457051261.0        2762791137.0        2480527362.0        2282316169.0
Wiener process for Thermostat # 9        1 F T T  -1.4314112949076601E+00         845018747.0         488333159.0        1873386589.0        3435284925.0        3254632723.0        2309306801.0        3777646647.0        1837464056.0        4204654757.0         664239048.0        4190510072.0        2959195122.0        3777646647.0        1837464056.0        4204654757.0         664239048.0        4190510072.0        2959195122.0
Wiener process for Thermostat # 10       1 F T T  -8.6397873497310362E-01        2035130629.0        3704233821.0        3925324663.0        2331523315.0        2473960698.0        1638785127.0        4215590817.0        3862461878.0        1087200967.0        1544910132.0         936383720.0        1611370123.0        4215590817.0        3862461878.0        1087200967.0        1544910132.0         936383720.0        1611370123.0
Wiener process for Thermostat # 11       1 F T T   3.0337989552589267E-01        3661115097.0        1218198360.0         938489964.0        2793914845.0        3186483521.0        4020673942.0        1683636369.0         362165168.0         814316280.0         869382050.0         980203903.0        2062101717.0        1683636369.0         362165168.0         814316280.0         869382050.0         980203903.0        2062101717.0
Wiener process for Thermostat # 12       1 F T T   9.7518199673176065E-01        2163140362.0         139905301.0         428460427.0        2897529318.0        1353483470.0        2307077096.0         272317999.0         166758548.0         310112982.0         201045826.0        1680231254.0         118290799.0         272317999.0         166758548.0         310112982.0         201045826.0        1680231254.0         118290799.0
Wiener process for Thermostat # 13       1 F T T   7.9674095597176819E-01        4170274746.0         648041340.0        3950370685.0        2225411874.0        2618411997.0        2643048657.0        2245755202.0        1652682525.0        2865544364.0         721509566.0         209733568.0         592362218.0        2245755202.0        1652682525.0        2865544364.0         721509566.0         209733568.0         592362218.0