 # Version information for this restart file 
 # current date 2024-11-21 20:48:07.455
 # current working dir /scratch/fh2268/comp-lab-class-2024/Week12-IntroAIMD/Runs/Proton
 # Program compiled at                              Sat Dec 12 18:27:15 EST 2020
 # Program compiled on                                         cs001.nyu.cluster
 # Program compiled for                                                nyu-intel
 # Source code revision number                                       git:8c64c6e
 &GLOBAL
   PRINT_LEVEL  LOW
   PROJECT_NAME WATER_SIMULATION
   RUN_TYPE  MD
   WALLTIME 21600
 &END GLOBAL
 &MOTION
   &GEO_OPT
     OPTIMIZER  BFGS
     MAX_ITER  100
     MAX_DR     3.0000000000000001E-03
     &BFGS
     &END BFGS
   &END GEO_OPT
   &MD
     ENSEMBLE  NVT
     STEPS  2000
     TIMESTEP     4.9999999999999994E-01
     STEP_START_VAL  49
     TIME_START_VAL     2.4500000000000014E+01
     ECONS_START_VAL    -1.1027999833048332E+03
     TEMPERATURE     3.0000000000000000E+02
     &THERMOSTAT
       TYPE  GLE
       REGION  MASSIVE
       &GLE
         NDIM  5
         A_SCALE     1.0000000000000000E+00
         A_LIST     1.8595758612559999E+02    2.7263853498399998E-01    1.1526100454610001E+01   -3.6414578262600003E+01 \
             2.3173375816020001E+02
         A_LIST    -2.7809524712060002E-01    8.5951591808710006E-05    7.2189048017650004E-01   -1.9844539343859999E-01 \
             4.2409257583420001E-01
         A_LIST    -1.4825808131210000E+01   -7.2189048017650004E-01    1.3590902121280000E+00    5.1498896280349999E+00 \
            -9.9949268450990001E+00
         A_LIST    -1.0372189126880000E+01    1.9844539343859999E-01   -5.1498896280349999E+00    2.6661910891169999E+01 \
             1.1507715495310000E+01
         A_LIST     2.1801346360420001E+02   -4.2409257583420001E-01    9.9949268450990001E+00   -1.1507715495310000E+01 \
             3.0958394565589998E+02
         &THERMOSTAT_ENERGY
              -1.5763029313132378E-03
              -7.1625932892711505E-05
               1.0329314460990309E-03
              -9.7441849082722902E-04
              -1.3789687834587494E-03
               2.6222909739337680E-03
               2.4778814570376671E-06
               2.2780396853210000E-03
               8.2472402651698553E-04
               1.4784660573594181E-03
               4.3103159382039142E-04
              -5.3682227686456074E-04
               4.0130403155971802E-03
              -1.7865065413616367E-04
               1.0996928985764320E-03
               2.7076160421505549E-04
               3.6137533891540010E-05
               1.1060632174666025E-03
              -2.9967560441403462E-04
              -2.7346037545149613E-03
               2.1323339781309183E-04
               1.4040341770505944E-03
              -5.4449117273084582E-04
              -7.7977906554535276E-04
              -1.9971793961532454E-04
              -7.9871020149248654E-04
              -1.2651205256995876E-04
               8.6838056060852491E-05
               1.4005655182209472E-03
               6.4704236894706747E-04
               1.5634772950060983E-03
              -4.2082126304271574E-04
              -5.5946976574439719E-05
               1.8693430382427451E-04
              -3.9984189687053947E-03
               8.6859708878671922E-04
               6.5424793880330511E-04
              -3.6191852286827724E-04
               1.0898520188284745E-04
              -3.6205808519474227E-04
              -1.4336812527881786E-04
              -2.5174236380631526E-03
              -2.4767189956093789E-03
               2.8504379783317563E-03
              -1.4968626373950199E-03
               2.1680701563483447E-03
               2.8275246096993518E-04
              -8.4606878576549494E-04
               1.2525601061210659E-03
              -9.3626141732473036E-05
              -1.4071202458985201E-03
              -8.1945007032752678E-05
              -5.7760801234163007E-04
              -5.4242255573091038E-04
              -9.7123167810915902E-04
              -7.9000811820381265E-04
              -1.7206050781658089E-04
              -6.7127923036950038E-05
              -1.9548755457227188E-03
              -1.1336441347514874E-03
               1.0119931731680633E-03
               1.9804773914744002E-03
               5.5558164434187573E-04
               1.5220987346848799E-03
              -4.4599748305597674E-04
               9.9572108962363965E-04
              -3.7563904054299213E-04
              -2.7433934085700860E-04
               1.8965175305650126E-03
               8.2983251219176640E-04
              -5.2599130006145025E-04
               8.6825436091135240E-04
              -1.3958490383130882E-03
               1.2280255474073247E-04
              -3.8808871383557634E-05
              -4.1744126814332146E-04
               1.1269345444334953E-03
               1.6257871323441149E-03
               4.6878650664120931E-03
               1.2721687166711870E-04
              -9.0731293669884183E-05
               1.0705879288038436E-04
               3.6095722224307466E-04
              -4.1645186236089426E-04
               4.1334290543223898E-04
               1.0910716519754392E-03
              -3.2587137519732774E-03
              -9.3459673570078425E-04
              -5.2225918925741168E-04
              -4.0616462184920276E-04
               2.2007034833153014E-03
               3.6495656621756143E-03
              -2.6355473975596152E-03
              -1.1364900190161682E-03
              -4.2571095323892924E-04
               2.5705221598975225E-04
              -4.2432620347386470E-04
              -9.2830596325552302E-04
               4.4795061102933197E-04
               2.5065108231050223E-04
              -5.2585146845858857E-04
               2.1642209989760551E-04
              -1.5524489543050379E-03
               1.9834425949727817E-03
               5.0968377051091324E-04
               7.3407798325354247E-04
               1.0383635910232302E-03
               1.4601427760449167E-04
               1.0502428570596280E-03
               3.8383556053978425E-04
               2.3261753531227152E-04
               1.2382913649110916E-04
               1.0603195815014946E-03
               2.3593778243800070E-04
               1.1130964339575334E-03
               6.0219403813927897E-04
              -7.8324903899790414E-03
               1.5173480613393303E-03
               6.4282080687491996E-04
               8.3813525932022962E-04
              -8.6390222257577622E-05
              -1.0451478897740350E-03
               2.6062357637413706E-03
              -6.6881400377894916E-04
               3.2489976879555632E-04
              -2.1243516867671102E-03
               7.2194045398557831E-05
               2.0029381866427712E-03
              -1.0328651198820518E-03
              -2.0269601354816025E-04
              -3.2484838841608239E-03
              -2.4998102330378706E-03
               1.4179619240079365E-03
              -7.8357806722341764E-04
              -1.6713524839403980E-03
              -2.4184487299290102E-04
              -1.0171252976084160E-03
               2.9416161113360513E-04
               7.1880296256876758E-04
               3.9741709071825334E-04
               2.5027773506763771E-03
               7.8551719224898952E-04
              -9.3542005613512667E-04
              -1.9002154101140390E-04
               8.0639163585960526E-04
              -5.8344858594342429E-05
               4.8845010453401781E-04
               1.1137306654221901E-05
              -1.2727099613285173E-04
               1.4104729031232930E-03
              -1.1276799060204790E-03
               4.2288226025408431E-05
              -2.8218761430849696E-04
               9.1548323711540341E-04
              -1.3388040486184751E-04
              -3.5163617085077353E-04
               3.6254234756717164E-04
              -7.0585054119880219E-04
               6.6015423014768122E-04
              -1.8128400779056822E-04
              -9.1910170963269665E-04
              -8.1328421640272598E-04
              -1.3085624997597922E-03
               3.0238075651515780E-04
               2.2365923366858770E-03
               1.0457223951175372E-03
               6.9294499474355676E-04
               1.8070374690800121E-04
              -3.0261518250136879E-03
              -8.5580759185352690E-05
               9.1912599419465273E-04
               1.2227208231286660E-03
               4.6475832958481334E-04
               3.1312511571835898E-03
               9.0316444709410287E-04
               2.1452415971227909E-03
              -7.9460030610076964E-04
              -2.7130764326072023E-03
               3.1706990239115289E-03
              -1.0488792881619810E-03
               2.0304967908934468E-03
               3.0796521547729761E-03
               1.9091017638329082E-02
               6.3738246274291276E-06
               1.1690345544173942E-03
              -8.8601705458228808E-05
               2.0694184059305773E-03
               4.2173349189473017E-04
              -3.2521167681987891E-03
               1.4717873658465713E-04
              -1.4572768666322332E-03
              -1.7848829079787740E-04
              -3.0855786865485496E-04
              -9.4761379622710935E-04
               1.4066570412910295E-04
              -1.2456832272269090E-03
               2.5197511464395638E-03
               6.0223208977524905E-04
              -3.9380622581882785E-04
               1.9598819262526082E-03
              -1.5351286456382952E-03
              -2.2413763752196207E-04
              -3.2551966940868151E-04
               1.4317985588934029E-03
              -2.4801495376654951E-03
               1.2025739058453468E-03
               3.9788913345319371E-04
              -3.3007711072144646E-04
               6.1856223340561636E-04
               4.8387314961475570E-04
              -1.1937739641453091E-04
              -2.3480574717022124E-04
               1.5403820145483611E-03
              -1.0926363508420391E-03
               1.7018819203706750E-03
              -1.3032900927983958E-03
              -3.7698266939159076E-04
               5.9727574131286404E-04
               7.5776851868747407E-04
               6.4861669509493709E-04
               6.6856353733209782E-04
               9.1602208668251659E-04
               5.1238438255728788E-04
              -1.4406091978003176E-04
               1.4414227213134100E-04
               7.7652238080600650E-04
               1.8303847429548311E-03
              -3.3104003937184552E-03
              -5.5139668893664005E-04
               1.4418842314154125E-03
              -1.9757080581848420E-04
              -7.7704756070271419E-04
               4.0467785319016233E-04
               1.9362952796674255E-03
               5.2386191793757678E-04
              -8.1180678725910284E-04
              -2.6192170493855140E-03
              -1.1298240896020822E-03
               3.9306074333013896E-04
              -7.5760675099974790E-05
              -4.8033415263400679E-04
              -1.0770136370320063E-03
               2.2820227396540623E-03
               2.1006350411099249E-03
               2.8147990756717989E-04
              -1.1564819649065945E-03
              -3.2893279407482249E-04
               1.5662132659192527E-03
              -1.9527263546658216E-04
              -5.1996550685617514E-04
               4.1140691319598325E-04
               8.4431037110711024E-04
              -1.0683122989033568E-03
               4.5011027609999360E-04
               6.4614156592325165E-04
               1.7188040445752177E-04
               2.1165007566023876E-06
              -1.1918465639523877E-03
               4.9532245095551270E-04
               1.0626461265277089E-03
              -8.6388878540367780E-04
               1.2962687083298006E-03
              -1.5588893281386390E-03
              -1.6324228547720922E-04
               1.5535312942570824E-03
              -5.4148009178027392E-04
               2.4248444750337643E-04
               4.1442070629687340E-03
               6.8131659668026965E-05
              -8.8407093926849679E-04
              -1.0541877281668457E-03
               5.0566154285605863E-04
               4.0975927648818512E-03
              -2.2313860576090298E-04
              -1.1509462222206313E-03
              -3.5770875224193642E-04
              -2.1902472383318666E-03
              -9.4966460114898380E-04
               1.9347008300073498E-04
              -1.0456084094933350E-03
              -2.0808118676804178E-06
              -5.7667458634276200E-04
              -1.4937002423155762E-03
               3.5148557535950335E-03
              -2.5556660886200735E-04
              -1.5462358611734290E-03
              -9.4017109745362802E-04
              -1.7043936051260521E-04
               2.1954532710997290E-04
               3.4526651837406409E-03
               5.5782742131767569E-03
              -1.6325550606248790E-04
               1.9000390967133349E-04
               3.3482920826311636E-04
              -1.9570507249237522E-03
               3.3847716105662859E-03
              -6.6616668616346734E-04
               1.4807977219416374E-03
              -1.4549195318554176E-03
              -3.0291167816386025E-04
               6.6485826831044108E-04
              -1.7586482709332595E-04
               1.0024920185551268E-03
               2.0374337409247495E-03
               1.3854748712701476E-04
              -2.1628763146897298E-03
              -1.9749034231759553E-03
               1.6938719305204771E-03
              -4.8024481529406637E-04
              -1.1979331399406684E-03
              -2.9495635627633528E-04
              -2.0286090555902533E-04
               8.0874301423054730E-04
               2.7066211016551909E-04
               1.4915303335167028E-03
               7.5042398182406482E-04
              -6.5640268462867574E-04
               1.4590763627087473E-03
               1.1709318376383572E-04
               3.3455149343215545E-03
               8.9238282491425772E-04
               1.1081276443885184E-03
              -1.1458827394525079E-03
              -8.1522351874313223E-04
               6.2214610784916229E-04
              -2.8812369834032782E-03
              -5.1725729112053179E-04
               1.8501391405146878E-04
               7.2571965034500842E-04
              -8.9071927347747178E-04
              -2.1220692899816297E-03
               1.3784055649712892E-03
               1.5410872863302471E-03
               2.0467051302304798E-03
               1.5016936553749897E-04
              -1.4459832259173335E-03
               1.7939757509420531E-04
               4.2874117083196089E-04
              -2.3628347182994073E-04
               1.6941818689991919E-03
               6.5547330804411100E-04
               4.2232999501586678E-04
               3.9810446332778793E-03
               1.1527706830423007E-03
              -2.2728621253755547E-04
              -6.5734474099752953E-04
               2.2489241202670247E-04
              -7.6879838613843005E-04
               1.0873995170585917E-03
              -2.4168397228828097E-03
              -1.6857418780425047E-03
              -1.0063305387869547E-03
               9.2074458936143534E-04
              -6.3606274608267834E-05
              -9.1052197738342232E-04
               1.3372786787868105E-04
               1.6366532806946779E-03
              -2.0100356177092223E-04
              -4.8254121331846035E-05
              -2.8324324735220778E-05
              -2.4717009815003726E-03
               2.6971941949035231E-04
               8.3642887907201013E-04
               5.1967116921412641E-04
              -2.7400217967204479E-04
               4.7225704211653857E-05
               1.3847215997369511E-03
               9.1541345318093019E-04
              -4.9295983093888785E-04
              -2.1490823247798004E-03
              -2.4970248376415794E-04
               1.3375547430348497E-04
              -7.8891179673708868E-05
              -5.4194997741843656E-04
              -1.0189689961348500E-03
               2.5893954193030844E-03
              -7.4342745601746848E-05
              -1.5485178304318638E-03
               5.6491177551768596E-04
               1.8104964667139383E-03
              -1.5689136361508799E-03
              -5.7263306653664156E-04
              -1.4823836916463275E-04
              -2.8817006616612415E-04
               9.6202720787265156E-04
               9.0543004777205740E-04
               1.1475017699907230E-04
              -3.2906091422142065E-03
               1.9513395326347968E-03
               1.9187057831417378E-03
              -4.4526281823165770E-04
               1.3000606480939273E-03
              -3.6188850711870054E-04
              -1.0010144122236800E-04
              -3.5154242456370975E-05
              -8.6680060101775622E-04
              -5.6362016269999845E-03
               3.4330041548479126E-03
              -5.4617841733968476E-04
              -7.2249611026663067E-04
              -8.9502750250686431E-05
               8.2491755826758699E-04
               6.0584892809730092E-04
               6.4263456936374810E-04
              -3.1114953684741964E-05
              -2.5050942472046624E-03
              -1.2660129233948859E-03
              -1.0588009995146767E-03
              -1.0677841330260056E-03
              -5.0918741589400178E-04
               1.4071918595988956E-04
               7.4216470333650321E-04
              -7.3682319233990524E-05
              -1.1833789135992905E-03
              -2.3867768507910333E-03
               2.1810961419996486E-03
              -3.5582212233556372E-03
              -4.6707935914003977E-04
              -3.2824136135278483E-04
               6.8851510158527860E-04
               1.2288434865827629E-03
               1.1872039728875528E-03
               1.2813030503919969E-04
               2.2629894118650297E-04
              -3.8410101132851400E-04
               6.8448567732049828E-04
               6.8234441502875137E-04
              -2.2804759383639826E-03
               9.7983617343296377E-06
               1.0909033715616151E-03
               5.2769985981709108E-04
              -4.5112989648325643E-04
               8.4806744157630730E-04
              -9.9004064176494324E-04
               1.6225104939058359E-03
               1.2348575460533462E-03
              -5.6333169978228098E-04
              -4.3732236785560988E-04
              -2.1609068953901515E-03
               6.0203867313378141E-04
               4.0909188137449427E-04
              -2.0637760260371861E-03
               5.8597766872652343E-05
              -1.3671322402008721E-03
              -8.3697280195357859E-04
              -9.3224803220569254E-05
               1.3409977343416747E-03
              -1.6785747219351819E-03
               2.8873245613717340E-03
               5.1961315104962131E-04
               2.5795874024983510E-03
              -3.2073760068177066E-03
               1.1205679285444274E-03
               3.8743771515678934E-04
               5.0356175154821952E-04
               4.2288707270715951E-06
               1.3209817559600657E-04
               5.9669863252062724E-04
               1.3474611826837478E-03
              -1.9674134075623830E-03
              -1.0367094096401335E-03
              -5.2443774423187621E-04
              -2.5780380919661946E-03
              -1.7405960872226385E-04
               1.5167133128874358E-03
              -1.2380382636963028E-03
              -1.2043441198755244E-03
               3.2946292151947036E-06
               1.4523665721930304E-03
               1.5562313031516862E-03
              -4.7956524117645380E-04
               1.0763425418364265E-03
               1.0555445067568436E-03
               1.8043483155510520E-04
               4.8811070758092488E-04
               6.1244750837368550E-04
              -2.0794184215346866E-05
              -5.9206602647842886E-04
              -3.3619018180209767E-04
               1.3789284292560332E-03
               2.8566350724234107E-03
               1.1250097521158303E-04
               1.8399588510450960E-03
               3.7116849823085173E-03
              -5.1601593694273746E-04
              -1.2047771355834659E-03
              -3.0779010425698123E-03
              -1.4088130847610329E-03
               1.5102646364210906E-03
               2.0985888830593602E-04
               1.0593075080836358E-04
              -4.2928353154497050E-04
               5.6257531095122392E-04
               1.0436920254877245E-04
               1.2490540068357870E-03
               5.4654819852115774E-04
               3.6680185554714378E-03
               1.4639919033479570E-03
              -1.7717181345959069E-03
               2.4176628625453904E-04
               1.6879056991422198E-04
               3.6379325443648225E-04
               6.4496877165393237E-04
               1.1560970774472290E-03
               1.1451576285997027E-04
              -2.0975514117104262E-03
               1.5183464943453504E-04
              -6.0304260296619914E-04
               1.9375257530596308E-04
              -4.5869807349815001E-04
               7.5079804285347435E-04
              -1.0251959697320733E-04
               1.5208621449868087E-04
              -1.8458866136587121E-03
               1.9049306829552943E-03
              -1.3367735756584700E-03
              -4.7366531756864013E-04
               1.9482735766523278E-03
               2.2373574738455940E-03
               2.0858464444069129E-04
               6.8852100216304979E-04
               2.5369793287814322E-04
               7.2835797561218306E-04
              -2.6691755063229781E-03
               3.5537374823455659E-04
               2.6992793152394044E-04
               1.6673690619011688E-03
               1.0247363169165564E-03
               2.0608963725677826E-03
              -1.2161980161725697E-03
               8.4725468833923932E-04
              -1.2716439630234011E-03
               5.8415885798518506E-04
              -1.6257686747152005E-03
               8.5075408745205114E-04
               2.3981940014782173E-04
              -3.4012894444721735E-04
               7.4717406300765083E-04
               5.3648568192124848E-04
              -6.4471322219964117E-04
              -1.0666979142154847E-03
              -1.6352222271047512E-03
              -6.7595854550144365E-04
               3.9892629503904655E-05
              -2.8284784315622049E-04
               2.7742149604190387E-04
              -6.1227938874782730E-04
               1.1753337934097491E-03
               1.0281778913650320E-03
               1.0149181707660127E-03
               1.5295895981158453E-03
              -9.4812516281587186E-04
              -6.4473400451940535E-04
              -3.4214422267715168E-04
              -7.9020741118443656E-04
              -4.0547129226717509E-03
               3.7047973870957748E-03
               2.0205738097592958E-04
               4.0874274310953428E-03
               1.9434056183917721E-03
               1.2573083790670327E-03
               2.1166865872136436E-03
              -8.1498932241028902E-04
               1.1221996840221555E-03
              -8.1765200575333367E-04
               1.7218403754982542E-05
              -8.3475228876718558E-05
              -1.7627787977053003E-03
               3.6745753045303470E-04
               4.0974570177856288E-04
              -8.0283571617655188E-04
               2.0525227978362621E-03
               8.5349596824071299E-04
              -1.9411639650886952E-03
               2.2716323400378022E-03
              -1.7396662017481873E-03
               1.8966173846198526E-03
              -7.1042581125886661E-04
              -3.7770465115416734E-04
         &END THERMOSTAT_ENERGY
         &RNG_INIT
Wiener process for Thermostat # 1        1 F T T   1.0936724050145761E+00        2578022064.0        3581968593.0        3899855642.0        3051313500.0         159273389.0        3166768891.0             12345.0             12345.0             12345.0             12345.0             12345.0             12345.0             12345.0             12345.0             12345.0             12345.0             12345.0             12345.0
Wiener process for Thermostat # 2        1 F T T  -7.3443202856490208E-01         606273233.0        2267423169.0        4091246328.0        3419974764.0        1635513973.0        3496798509.0        3692455944.0        1366884236.0        2968912127.0         335948734.0        4161675175.0         475798818.0        3692455944.0        1366884236.0        2968912127.0         335948734.0        4161675175.0         475798818.0
Wiener process for Thermostat # 3        1 F T T  -6.7142175702043588E-02        1855478097.0        1883520320.0        2683045888.0        3028905694.0        4158429517.0        1870039607.0        1015873554.0        1310354410.0        2249465273.0         994084013.0        2912484720.0        3876682925.0        1015873554.0        1310354410.0        2249465273.0         994084013.0        2912484720.0        3876682925.0
Wiener process for Thermostat # 4        1 F T T   4.8670571776696708E-01        2498251857.0        2494389803.0        3010027567.0         487879323.0        3329284767.0        1395919873.0        2338701263.0        1119171942.0        2570676563.0         317077452.0        3194180850.0         618832124.0        2338701263.0        1119171942.0        2570676563.0         317077452.0        3194180850.0         618832124.0
Wiener process for Thermostat # 5        1 F T T  -1.7294414523521058E+00        1148002428.0        1202250921.0        2000285640.0        4270067642.0        3699338601.0         567674359.0        1597262096.0        3906379055.0        3312112953.0        1016013135.0        4099474108.0         275305423.0        1597262096.0        3906379055.0        3312112953.0        1016013135.0        4099474108.0         275305423.0
Wiener process for Thermostat # 6        1 F T T  -9.7772468536520318E-01        1672360598.0        3774876252.0        1234959793.0        2380473462.0        2270718001.0        2478957609.0          97147054.0        3131372450.0         829345164.0        3691032523.0        3006063034.0        4259826321.0          97147054.0        3131372450.0         829345164.0        3691032523.0        3006063034.0        4259826321.0
Wiener process for Thermostat # 7        1 F T T  -1.4475308179967821E+00        1873230663.0        3919073638.0        2999533156.0        1218577333.0        2184259885.0        3976896370.0         796079799.0        2105258207.0         955365076.0        2923159030.0        4116632677.0        3067683584.0         796079799.0        2105258207.0         955365076.0        2923159030.0        4116632677.0        3067683584.0
Wiener process for Thermostat # 8        1 F T T   3.7680048676565164E-01        3366074587.0        2614024260.0         527376905.0        3414241827.0         328466358.0         351263763.0        3281794178.0        2616230133.0        1457051261.0        2762791137.0        2480527362.0        2282316169.0        3281794178.0        2616230133.0        1457051261.0        2762791137.0        2480527362.0        2282316169.0
Wiener process for Thermostat # 9        1 F T T   3.0329988044973410E-01        3339116762.0        3563326185.0        1342643582.0        3130805907.0         303592359.0        3145578869.0        3777646647.0        1837464056.0        4204654757.0         664239048.0        4190510072.0        2959195122.0        3777646647.0        1837464056.0        4204654757.0         664239048.0        4190510072.0        2959195122.0
Wiener process for Thermostat # 10       1 F T T  -1.6507790419016326E+00        1842690131.0        2340558328.0        2369602408.0        1445662141.0        1275235157.0        4235913676.0        4215590817.0        3862461878.0        1087200967.0        1544910132.0         936383720.0        1611370123.0        4215590817.0        3862461878.0        1087200967.0        1544910132.0         936383720.0        1611370123.0
Wiener process for Thermostat # 11       1 F T T   9.4503293898377216E-01        3108498820.0        1943574606.0        4057155550.0         824262108.0        2374257515.0        1798138224.0        1683636369.0         362165168.0         814316280.0         869382050.0         980203903.0        2062101717.0        1683636369.0         362165168.0         814316280.0         869382050.0         980203903.0        2062101717.0
Wiener process for Thermostat # 12       1 F T T   3.2010351030057999E-01        3922411660.0         578611871.0        2946650044.0        1752085334.0        1714727046.0        2229532208.0         272317999.0         166758548.0         310112982.0         201045826.0        1680231254.0         118290799.0         272317999.0         166758548.0         310112982.0         201045826.0        1680231254.0         118290799.0
Wiener process for Thermostat # 13       1 F T T   1.4247740038239771E+00         323535221.0        1405430036.0         506123817.0        3711375661.0        3087022154.0        3078446601.0        2245755202.0        1652682525.0        2865544364.0         721509566.0         209733568.0         592362218.0        2245755202.0        1652682525.0        2865544364.0         721509566.0         209733568.0         592362218.0