 # Version information for this restart file 
 # current date 2024-11-21 20:44:24.639
 # current working dir /scratch/fh2268/comp-lab-class-2024/Week12-IntroAIMD/Runs/Proton
 # Program compiled at                              Sat Dec 12 18:27:15 EST 2020
 # Program compiled on                                         cs001.nyu.cluster
 # Program compiled for                                                nyu-intel
 # Source code revision number                                       git:8c64c6e
 &GLOBAL
   PRINT_LEVEL  LOW
   PROJECT_NAME WATER_SIMULATION
   RUN_TYPE  MD
   WALLTIME 21600
 &END GLOBAL
 &MOTION
   &GEO_OPT
     OPTIMIZER  BFGS
     MAX_ITER  100
     MAX_DR     3.0000000000000001E-03
     &BFGS
     &END BFGS
   &END GEO_OPT
   &MD
     ENSEMBLE  NVT
     STEPS  2000
     TIMESTEP     4.9999999999999994E-01
     STEP_START_VAL  48
     TIME_START_VAL     2.4000000000000014E+01
     ECONS_START_VAL    -1.1027999833048332E+03
     TEMPERATURE     3.0000000000000000E+02
     &THERMOSTAT
       TYPE  GLE
       REGION  MASSIVE
       &GLE
         NDIM  5
         A_SCALE     1.0000000000000000E+00
         A_LIST     1.8595758612559999E+02    2.7263853498399998E-01    1.1526100454610001E+01   -3.6414578262600003E+01 \
             2.3173375816020001E+02
         A_LIST    -2.7809524712060002E-01    8.5951591808710006E-05    7.2189048017650004E-01   -1.9844539343859999E-01 \
             4.2409257583420001E-01
         A_LIST    -1.4825808131210000E+01   -7.2189048017650004E-01    1.3590902121280000E+00    5.1498896280349999E+00 \
            -9.9949268450990001E+00
         A_LIST    -1.0372189126880000E+01    1.9844539343859999E-01   -5.1498896280349999E+00    2.6661910891169999E+01 \
             1.1507715495310000E+01
         A_LIST     2.1801346360420001E+02   -4.2409257583420001E-01    9.9949268450990001E+00   -1.1507715495310000E+01 \
             3.0958394565589998E+02
         &THERMOSTAT_ENERGY
              -1.3697004168400999E-03
              -4.4734801550768348E-05
               9.4010346433029369E-04
              -2.2158022293581664E-03
              -1.3697714982058269E-03
               2.2361321190336597E-03
              -1.0498056898983522E-04
               2.3544011064134500E-03
               7.8391041761004861E-04
               1.3151904420019684E-03
              -1.9753106140652931E-04
              -6.0586218122523554E-04
               3.9602991641927727E-03
               4.7929463970978697E-05
               9.1101990315751340E-04
               1.9111686161796506E-04
               9.6831864488460657E-05
               1.1843967246631536E-03
              -3.4456644145340831E-04
              -1.8016013087562167E-03
              -2.4518842088159577E-05
               1.3346921767309308E-03
              -7.0538982263505128E-04
              -7.8922158443144573E-04
               6.2985765326334093E-05
              -6.3440167826048709E-04
              -1.9353175225055475E-04
              -3.3660479880107293E-04
               1.3772231997382905E-03
               4.7379497899696323E-04
               1.4305896374318585E-03
              -4.0298142267739011E-04
              -1.0803272698945517E-04
               6.3899536547287007E-05
              -4.5917131535914693E-03
               4.2493651143892582E-04
               6.6329509505680319E-04
               2.0725078517089084E-04
               1.3200004869490993E-04
              -2.9585030149713548E-04
              -1.4377123957892638E-03
              -2.3137733268002660E-03
              -2.4048795449945204E-03
               3.0025249397902512E-03
              -1.4426931257583522E-03
               2.1632786021425531E-03
               2.0951275044647614E-04
              -1.9034351313675147E-03
               1.5525409265318311E-03
               3.9145557077457368E-04
              -1.6518508884426112E-03
              -4.7276587599296490E-04
              -5.7938993614981742E-04
              -1.2071485661012942E-03
              -9.7795093149652705E-04
              -4.9272301560257959E-04
              -2.1289067993569391E-04
               6.6463557615802413E-05
              -1.4078070235907655E-03
              -8.8316260171656606E-04
               1.1141606120047473E-03
               1.6903788123861360E-03
              -2.9969052639068150E-05
               1.4815772014002261E-03
              -6.0293080776463730E-04
               8.9870575834411555E-04
              -3.8702019269713621E-04
              -2.9093008390786385E-04
               1.8991378198538866E-03
               4.0854677871501324E-04
              -1.3624623600149129E-03
               1.1516048728988462E-03
              -7.7906592795400043E-04
              -2.0521730229490335E-05
               1.4943777689583235E-04
              -3.7133811519942544E-04
               1.1499113161046459E-03
               1.7115231508555830E-03
               4.6813128182804729E-03
              -2.8650752496930129E-05
              -1.1368361572477255E-04
              -4.9447116324838369E-05
               2.1401366665045021E-04
              -4.6774165168844434E-04
               4.9977767114447037E-04
               1.1463817617629636E-03
              -1.8041972679437596E-03
              -9.6543987695586384E-04
              -4.4898480109908825E-04
              -3.4408831668322705E-04
               2.0897990498221198E-03
               3.6263215424366009E-03
              -3.2244135989675012E-03
              -3.3285015086862834E-04
              -6.4520769892613882E-04
               8.9494985526241409E-04
              -7.6821534936682544E-04
              -1.6051344140570411E-03
               4.0516046185619240E-04
               5.0371162381193635E-04
              -1.4088907487580351E-03
               8.8411626566319625E-05
              -6.3439491218708274E-04
               1.8230611819581651E-03
               5.7617961982674463E-04
               7.4949303597695368E-04
               1.0531917251457681E-03
              -6.8161502519402243E-05
               5.7495589227683959E-04
               1.7020615916032810E-04
               5.5041393442606509E-04
               2.8653454827426769E-04
               1.0007536287090911E-03
               5.1003364513123230E-04
               8.5007428878434944E-04
               3.5052614442207400E-04
              -8.4420259091813055E-03
               1.5137545339990411E-03
               7.3277740863104338E-04
               6.5691924023265490E-04
              -6.3362632003122795E-04
              -1.4239871628480751E-03
               2.5888899434357549E-03
              -1.0527782250347739E-03
               2.7743258327520774E-04
              -2.4987110701981696E-03
               1.0356326097958431E-04
               2.1156818352356587E-03
              -4.1942954339202612E-04
              -3.0846204583531277E-04
              -3.3599462057299404E-03
              -2.7477136601747418E-03
               2.2800458069327728E-03
              -1.0718348158083512E-03
              -1.9493904924861635E-03
              -1.7482843546524976E-03
              -3.6201803481894588E-04
               2.8912869614187709E-04
               7.4611976745204414E-04
               4.6459249375830957E-04
               2.4276872647455866E-03
               7.6008542319640096E-04
              -9.3104995591130441E-04
               9.5195585337374042E-05
               1.0474984205764118E-03
              -1.4299681528318363E-04
               1.5361342340938203E-03
              -1.4962119113965948E-04
              -1.1716376162678236E-04
               1.4061682884026257E-03
              -7.7703153740264145E-04
              -2.9795185867095093E-05
              -5.1229665161464124E-04
               9.9680488579580585E-04
              -2.0342250521544654E-05
              -1.5811172262734160E-04
               4.2672140465123041E-04
              -4.3730288059120551E-04
               6.5180895025772258E-04
              -9.1801289098029882E-05
              -8.0666208580344441E-04
              -8.2091444941001632E-04
              -1.2294517389463792E-03
               2.5430615114612647E-04
               2.1117468038248394E-03
               1.1037289859590705E-03
               5.9212504852464078E-04
               1.0639192015799975E-03
              -3.0103779199651391E-03
              -1.0643286254796354E-04
               5.4077158101452838E-04
               2.4113065488837551E-04
               7.0094754502162781E-04
               3.9059507687708608E-03
               3.7231198550240831E-04
               2.2111412665254916E-03
              -5.6658224154057849E-04
              -2.7576967199849363E-03
               3.1593138065006579E-03
              -1.0457983689329683E-03
               2.4369738360986134E-03
               3.6909653704180218E-03
               1.9571778729375561E-02
              -1.0461719760589242E-04
               1.1854796326400425E-03
              -1.5383025852051314E-04
               1.5823361400163763E-03
               3.9007088880928611E-04
              -3.7088831059658919E-03
               1.0454310338448724E-04
              -2.5293000167057773E-03
              -5.1054585909003039E-05
              -3.5824492810943606E-04
              -1.0628199281354194E-03
               4.8492223791235360E-04
              -1.2981821107895333E-03
               2.4970854051334914E-03
               8.7558430795206716E-04
              -2.6107204346123976E-04
               1.9440821364705829E-03
              -1.6366901985185184E-03
              -3.3275861994650434E-04
              -2.9018728263035490E-04
               1.6221026832237923E-03
              -2.6953464473022555E-03
               1.2093320506167593E-03
               9.3489387664694060E-04
               4.6774770543375017E-04
               4.5823382483280639E-04
               4.6139273394507803E-04
              -3.1130504027142606E-04
              -2.0991384105702334E-04
               1.4338054298715891E-03
              -7.7639129702245001E-04
               1.5807331157321257E-03
              -1.3961491732418605E-03
              -2.6654226147650661E-04
               9.7896272736619949E-04
               4.9507405928372677E-04
               6.6685015056332990E-04
               5.4646061215268067E-04
               9.0788218187380740E-04
              -3.3304157245274586E-06
              -1.4542841351099785E-03
              -3.3646872019142660E-04
               8.6381270533671887E-04
               1.8347265770644453E-03
              -1.9436459384706700E-03
              -7.3616688182543723E-04
               1.3073392579053900E-03
               8.0233823674297818E-04
              -4.8932867460680935E-04
               3.9953444414919377E-04
               1.7961405250973310E-03
               7.3723308910383326E-04
              -2.1561496531065250E-04
              -2.5481181340383640E-03
              -1.0525488033880672E-03
               1.2660798842338682E-03
              -7.9427770846786491E-05
              -2.3186964543053653E-03
              -1.2471962063389296E-03
               1.9905311573424631E-03
               2.1465366338706267E-03
               2.3675336664523040E-04
              -9.7639738941511511E-04
              -1.2101127713757978E-04
               1.6040035061144207E-03
              -5.2641271500768671E-04
              -5.2401875527188270E-04
               6.1199921077435978E-04
               2.7777701373571433E-04
              -1.0594558154555754E-03
               7.0682534656058482E-04
               6.4538440677231682E-04
               3.6554683268088205E-04
               2.6620300924130862E-05
              -1.8515960946860800E-03
               5.6370217792288868E-04
               1.2581333157170368E-03
              -7.1306070805695612E-04
               1.0303899794055849E-03
              -1.7469809584676032E-03
               9.3697011818778646E-04
               1.4400552334339872E-03
              -4.4192179503896572E-04
              -1.5886379095765807E-04
               5.3011745287723303E-03
               2.5738772562625137E-05
              -1.9166425079533711E-03
              -1.0065923152195761E-03
              -9.0210535454126792E-04
               4.4190786358695227E-03
              -1.3499388226728324E-04
              -6.7611601899175353E-04
              -3.2827980683087002E-04
              -1.6368460962684155E-03
              -1.0322863537021139E-03
               1.8668368718667601E-04
              -6.5630349552846050E-04
               3.3865776578700571E-05
              -8.5948820305231319E-04
              -1.9211733938786944E-03
               2.6258514547131623E-03
              -3.1748339333558830E-04
              -2.0576893793261929E-04
              -6.3307594862100096E-04
              -7.2235136555022354E-04
               3.0538672679111090E-04
               4.1727482022356401E-03
               5.2711916620645427E-03
              -1.4271285008562150E-04
              -2.0253381363069485E-04
               2.1185505825953164E-04
              -1.8047168409906751E-03
               3.1687500921005777E-03
              -3.4924625204447822E-04
               1.5532257880076434E-03
              -1.3304887466522506E-03
              -5.1239947711217873E-04
              -1.7115404483586285E-04
              -1.0673051858419146E-04
              -2.0468904010534014E-05
               2.2766753248266371E-03
               1.7711719118546765E-04
              -2.3166937611821732E-03
              -2.1707294216775849E-03
               1.6464588107458361E-03
              -4.6102465252682471E-04
              -2.3414907246630790E-03
              -3.2051269469125374E-05
              -1.4012836056887610E-04
               8.9901475855275670E-04
               2.6201638573996125E-04
               1.6029493646562267E-03
               1.0129685952116102E-03
              -2.1251865337661553E-04
               8.9209716800638507E-04
               8.1513861110551740E-04
               3.1853389846506091E-03
               9.4679741671787514E-04
               8.1164343521581946E-04
              -1.3910551073601190E-03
              -1.1569726112987137E-03
               9.6231976492762786E-04
              -3.2231911254703999E-03
              -3.8102598786809348E-04
              -2.0291492357899323E-04
               7.8827078761514117E-04
              -7.0050266314778721E-04
              -1.8991205052356949E-03
               7.2830798682869263E-04
               1.6229023507756957E-03
               2.0974426373060375E-03
              -1.4262269817672755E-05
              -1.8442416258066599E-03
              -2.1492631968971637E-05
               3.8768079844887185E-04
              -3.7304717296785352E-04
               1.3186628739212053E-03
               7.6028746555308708E-04
               1.6565257499123764E-05
               4.0552360735717635E-03
               1.1146676914277219E-03
              -3.6143956797943634E-04
              -5.6637345019769727E-04
               3.7613877145025696E-04
              -7.7214541696905294E-04
               1.5957915198921149E-03
              -2.6093899316066310E-03
              -9.3955182442332643E-04
              -1.0967131616040451E-03
               8.4538112883563051E-04
              -5.5614158335003420E-05
              -5.2190736530758383E-04
               1.6510253616414011E-04
               2.2423096469368947E-04
              -2.9050040249602150E-04
              -1.9451790186130293E-04
              -8.4739298670010208E-05
              -2.7780415050152889E-03
               2.9802850270071416E-05
               8.2579150520402215E-04
               4.5195741955672656E-04
              -1.5621572878517470E-04
              -6.6484237667742440E-04
               1.3453893092807041E-03
               9.7534496127104167E-04
              -4.9916308420596995E-04
              -2.0788729060825586E-03
               5.1548844063475127E-04
              -1.6728912988062279E-04
              -1.5041451789409249E-05
              -5.2035605621429421E-04
              -7.2218288175647277E-04
               1.6644620848102172E-03
              -7.5026272238725523E-05
              -1.7884728640170198E-03
               5.3271594567353960E-04
               2.2955787285260819E-03
              -1.6600294198048341E-03
              -7.7315770716241306E-04
              -5.5910857510242521E-04
              -4.8498588148155317E-04
               1.2650474988319218E-03
               1.0373602400217427E-03
               1.8609758395170148E-05
              -3.4127363447705732E-03
               1.7992250581414268E-03
               1.5529445606590360E-03
              -3.9110387470810197E-04
               1.3982653612369662E-03
              -3.5947947619722174E-04
               2.2085086017640339E-04
              -9.6230033397234026E-05
              -1.3626444279440817E-03
              -5.5623605643042064E-03
               2.3724035041481776E-03
              -2.5147386943540236E-04
              -6.4238722423285842E-04
               6.2576709268643801E-04
               4.9395798593034577E-04
               1.2437213832433972E-03
               6.2422818613077507E-04
               1.9599068375073713E-04
              -1.7343063777413279E-03
              -1.2864480145018786E-03
              -1.3977529933642953E-03
              -3.4480470483395269E-04
              -3.2374680465040064E-04
               7.6479974847174133E-06
               6.9576756469603334E-04
              -5.2319514007504754E-04
              -6.5185854058665525E-04
              -1.9315851105200625E-03
               2.4825744413649233E-03
              -3.0206486596506205E-03
              -4.9107948545698511E-04
              -3.0421779997502976E-04
               7.0822311625796735E-04
               6.8982308005985729E-04
               2.9946871194807948E-04
               7.2157458562214962E-04
              -9.5751243329733355E-05
              -3.7716597719167182E-04
               8.0706291553814930E-04
               3.6729697794968665E-04
              -2.1240468392792469E-03
               1.1892651111949094E-05
               1.1197936570624455E-03
               5.3537429100428266E-04
              -4.7167027475508770E-04
               9.9478193930116520E-04
              -3.3110802971014265E-04
               1.6102857026826696E-03
               1.2968312188010919E-03
              -3.9088930558371247E-04
              -7.8546716280665290E-04
              -1.4918061868699167E-03
               6.1102396269283662E-04
               4.1973383840207562E-04
              -2.4476629380343366E-03
               9.3310467480388465E-06
              -1.2373031869326559E-03
              -7.2055181238220691E-04
              -5.9797445156390472E-05
               1.3510914271921408E-03
              -1.8272392683578802E-03
               3.3631997614684116E-03
               1.1164269469525184E-03
               2.5262259589344280E-03
              -3.3004605942388620E-03
               8.8379735263713062E-04
               5.3202532374211622E-04
               1.7936935735308129E-04
              -2.8061915848548056E-05
              -1.9727992447195485E-04
               5.7982915008378646E-04
               1.3712567530897695E-03
              -1.4494752481880758E-03
              -9.8027676860828984E-05
               1.4495474427354799E-04
              -2.8174485965496827E-03
              -5.5326574928244788E-04
               2.0833672200906202E-03
              -7.3174681956530052E-04
              -1.1274353193876426E-03
              -2.9372266655617898E-05
               1.5763641116191035E-03
               1.6115643374243409E-03
              -5.6460283244688940E-04
               9.5014134391584789E-04
               1.2254760862912164E-03
               2.0997574569807837E-04
               4.7217229865872918E-04
               1.1676746363175551E-03
               1.4365386874287342E-04
               4.7601335600434358E-05
              -2.7519388557057994E-04
               1.3280305345501691E-03
               2.9170544289531838E-03
              -9.8464491607882154E-05
               1.7643391758235278E-03
               3.6804027290292707E-03
              -3.2475446680876158E-04
              -9.2236433434908743E-04
              -3.2270599540393822E-03
              -1.4388411608467640E-03
               1.5109046323370254E-03
               4.2496493650330639E-04
               9.8008021252187958E-05
              -4.1846790125690152E-04
               4.5066749618553019E-04
              -3.0194695959606633E-04
               1.3949188888860145E-03
               1.1584582340125507E-03
               3.4287025798808344E-03
               1.6905099975793125E-03
              -1.0977646772192861E-03
               3.9426459897060886E-04
               4.2597144407744894E-04
               6.6421677416242571E-04
               9.5793799872856194E-04
               1.2208437461303399E-03
              -6.1978262743434128E-05
              -2.1673567799221681E-03
               2.1147340785420939E-05
              -2.0494131395273939E-04
              -1.7027766659328603E-05
              -4.4045839740808096E-04
               7.0559023510122112E-04
               1.5449460565721614E-04
               1.5668273022623506E-04
              -1.1986092420538182E-03
               1.7838137390001952E-03
              -1.0547616915426376E-03
              -8.6398047447725347E-04
               2.1450424834516600E-03
               2.1193725715225971E-03
               9.7630152213407933E-05
               6.4073110605648680E-04
              -1.4228819261327143E-04
               7.2205393727441298E-04
              -2.6073494634015104E-03
               3.8404554543574758E-04
               2.7188324480439025E-04
               1.8208718970804747E-03
               1.0007330599855211E-03
               2.0509965272458015E-03
              -1.2168594424821683E-03
               8.0747117068480899E-04
              -1.1545641707443387E-03
               5.9572299068044200E-04
              -1.8512744790531142E-03
               6.7711408892103561E-04
               2.4990121869535996E-04
              -3.2725724332664184E-04
               5.6803920498457380E-04
               3.0019607726141284E-04
              -1.1216062135853883E-03
              -1.1286255190664579E-03
              -2.0230395963958614E-03
              -3.1750155510252892E-04
               3.8102539131762084E-05
              -2.7636742267240090E-04
              -1.9933788544137577E-04
              -1.0690866824926083E-03
               1.1181110427456713E-03
               1.0712074667558352E-03
               1.0103836321369785E-03
               1.4959991034270204E-03
              -1.3573915896733708E-03
              -6.7644667843960184E-04
              -4.0039675009358286E-04
              -7.5205805124154324E-04
              -4.0568838663702141E-03
               3.5631874031792628E-03
               6.6211898058110010E-04
               4.1171007682716740E-03
               2.0734870855005096E-03
               1.3068941405743890E-03
               1.7615535681755447E-03
              -1.6662783009633068E-04
               8.0541885094596193E-04
               2.7376391464268819E-04
               1.5103471191859485E-04
              -1.7462470929287125E-04
              -1.8542936643927178E-03
               1.6103128585673288E-04
               4.3015274533901744E-04
              -6.8882965840903342E-04
               2.0618879380942313E-03
               8.1993257831051796E-04
              -1.7849542507825159E-03
               2.5409751895336128E-03
              -1.5008288325869283E-03
               1.7912553587695456E-03
              -5.0547381530540358E-04
               2.0413764835533227E-04
         &END THERMOSTAT_ENERGY
         &RNG_INIT
Wiener process for Thermostat # 1        1 F T T   2.4394949649911385E-01        3581392095.0        4245447744.0        1846744161.0        2013091943.0        1125887947.0        3715007977.0             12345.0             12345.0             12345.0             12345.0             12345.0             12345.0             12345.0             12345.0             12345.0             12345.0             12345.0             12345.0
Wiener process for Thermostat # 2        1 F T T  -5.5615973396894092E-01        3909616095.0        3426242160.0        3494403923.0        3884138427.0        2425843262.0        2659535270.0        3692455944.0        1366884236.0        2968912127.0         335948734.0        4161675175.0         475798818.0        3692455944.0        1366884236.0        2968912127.0         335948734.0        4161675175.0         475798818.0
Wiener process for Thermostat # 3        1 F T T   5.8715055632031421E-01        3301113016.0         136916930.0          58045336.0         713400237.0         686253138.0        3987944488.0        1015873554.0        1310354410.0        2249465273.0         994084013.0        2912484720.0        3876682925.0        1015873554.0        1310354410.0        2249465273.0         994084013.0        2912484720.0        3876682925.0
Wiener process for Thermostat # 4        1 F T T  -1.0855598636449033E+00        1903690447.0         269962867.0        3736021799.0        4023969799.0        3844796008.0        1228278629.0        2338701263.0        1119171942.0        2570676563.0         317077452.0        3194180850.0         618832124.0        2338701263.0        1119171942.0        2570676563.0         317077452.0        3194180850.0         618832124.0
Wiener process for Thermostat # 5        1 F T T   1.2411606267326061E+00        3158256738.0         505183878.0        2744271813.0        1770834132.0        1233443238.0        1809654709.0        1597262096.0        3906379055.0        3312112953.0        1016013135.0        4099474108.0         275305423.0        1597262096.0        3906379055.0        3312112953.0        1016013135.0        4099474108.0         275305423.0
Wiener process for Thermostat # 6        1 F T T  -2.4996674131981092E-01        1704626977.0         695305038.0         525797049.0         692511287.0        4233555777.0        1360564654.0          97147054.0        3131372450.0         829345164.0        3691032523.0        3006063034.0        4259826321.0          97147054.0        3131372450.0         829345164.0        3691032523.0        3006063034.0        4259826321.0
Wiener process for Thermostat # 7        1 F T T  -1.8081156933011500E-01        2335179891.0        1531646318.0        3848495270.0         773057201.0        3727433049.0        1559257192.0         796079799.0        2105258207.0         955365076.0        2923159030.0        4116632677.0        3067683584.0         796079799.0        2105258207.0         955365076.0        2923159030.0        4116632677.0        3067683584.0
Wiener process for Thermostat # 8        1 F T T   1.2993467154509577E+00        4013913744.0        1233860730.0        1746388378.0         563396611.0        2758980883.0        1424931369.0        3281794178.0        2616230133.0        1457051261.0        2762791137.0        2480527362.0        2282316169.0        3281794178.0        2616230133.0        1457051261.0        2762791137.0        2480527362.0        2282316169.0
Wiener process for Thermostat # 9        1 F T T  -3.9231157739413636E-01        3123589161.0        1813244446.0          68173081.0        3994167938.0        4177326542.0        3288527682.0        3777646647.0        1837464056.0        4204654757.0         664239048.0        4190510072.0        2959195122.0        3777646647.0        1837464056.0        4204654757.0         664239048.0        4190510072.0        2959195122.0
Wiener process for Thermostat # 10       1 F T T  -1.0953536328162781E+00        3133263269.0        3628354904.0        2306088592.0         685769610.0        2288256851.0        2470234654.0        4215590817.0        3862461878.0        1087200967.0        1544910132.0         936383720.0        1611370123.0        4215590817.0        3862461878.0        1087200967.0        1544910132.0         936383720.0        1611370123.0
Wiener process for Thermostat # 11       1 F T T   1.0960835283811952E+00        2833375684.0        2095249498.0        3782011924.0        2668247318.0        3011279984.0         595563830.0        1683636369.0         362165168.0         814316280.0         869382050.0         980203903.0        2062101717.0        1683636369.0         362165168.0         814316280.0         869382050.0         980203903.0        2062101717.0
Wiener process for Thermostat # 12       1 F T T   6.2401066384809523E-01        1955215527.0        2579673342.0         599110418.0        2678363038.0         273744378.0        1485451712.0         272317999.0         166758548.0         310112982.0         201045826.0        1680231254.0         118290799.0         272317999.0         166758548.0         310112982.0         201045826.0        1680231254.0         118290799.0
Wiener process for Thermostat # 13       1 F T T  -3.6248708654088579E-02        1734932579.0         385093762.0        1798317118.0        1694714024.0        3917767634.0        2856924150.0        2245755202.0        1652682525.0        2865544364.0         721509566.0         209733568.0         592362218.0        2245755202.0        1652682525.0        2865544364.0         721509566.0         209733568.0         592362218.0