 # Version information for this restart file 
 # current date 2024-11-21 20:37:06.133
 # current working dir /scratch/fh2268/comp-lab-class-2024/Week12-IntroAIMD/Runs/Proton
 # Program compiled at                              Sat Dec 12 18:27:15 EST 2020
 # Program compiled on                                         cs001.nyu.cluster
 # Program compiled for                                                nyu-intel
 # Source code revision number                                       git:8c64c6e
 &GLOBAL
   PRINT_LEVEL  LOW
   PROJECT_NAME WATER_SIMULATION
   RUN_TYPE  MD
   WALLTIME 21600
 &END GLOBAL
 &MOTION
   &GEO_OPT
     OPTIMIZER  BFGS
     MAX_ITER  100
     MAX_DR     3.0000000000000001E-03
     &BFGS
     &END BFGS
   &END GEO_OPT
   &MD
     ENSEMBLE  NVT
     STEPS  2000
     TIMESTEP     4.9999999999999994E-01
     STEP_START_VAL  46
     TIME_START_VAL     2.3000000000000014E+01
     ECONS_START_VAL    -1.1027999833048332E+03
     TEMPERATURE     3.0000000000000000E+02
     &THERMOSTAT
       TYPE  GLE
       REGION  MASSIVE
       &GLE
         NDIM  5
         A_SCALE     1.0000000000000000E+00
         A_LIST     1.8595758612559999E+02    2.7263853498399998E-01    1.1526100454610001E+01   -3.6414578262600003E+01 \
             2.3173375816020001E+02
         A_LIST    -2.7809524712060002E-01    8.5951591808710006E-05    7.2189048017650004E-01   -1.9844539343859999E-01 \
             4.2409257583420001E-01
         A_LIST    -1.4825808131210000E+01   -7.2189048017650004E-01    1.3590902121280000E+00    5.1498896280349999E+00 \
            -9.9949268450990001E+00
         A_LIST    -1.0372189126880000E+01    1.9844539343859999E-01   -5.1498896280349999E+00    2.6661910891169999E+01 \
             1.1507715495310000E+01
         A_LIST     2.1801346360420001E+02   -4.2409257583420001E-01    9.9949268450990001E+00   -1.1507715495310000E+01 \
             3.0958394565589998E+02
         &THERMOSTAT_ENERGY
              -7.6301213384328908E-04
              -1.0958624175194982E-04
               6.4778361878468742E-04
              -1.7468520938523431E-03
              -1.4901786258336978E-03
               2.8990570401789023E-03
               2.1359067718905309E-05
               2.3740740734028857E-03
               7.9357724443746458E-04
              -5.9447881995928131E-05
               2.6947842347571269E-04
              -2.4242054279071746E-05
               3.7704723295146842E-03
               2.4332134663425489E-04
               1.0789662108526188E-03
               3.2934926001720058E-04
              -3.6289202373540564E-04
               1.1738016130621088E-03
              -2.3601675974878106E-04
               5.2969598194522376E-04
              -1.5744313709206161E-04
               1.2333577605088901E-03
              -5.4890472107473900E-04
              -8.0678009167214633E-04
               2.8990121435573787E-04
              -8.8424788528615396E-04
              -1.7734246916397735E-04
              -1.0421245178609442E-03
               1.4447490047574312E-03
               5.3188288684332199E-04
               1.2412434374955183E-03
              -4.1354472103426757E-04
              -6.7092537802589315E-05
              -1.2226133185506575E-04
              -3.5437269738030101E-03
               1.4833123478304366E-03
               7.2264944569851836E-04
              -8.1181151523990235E-04
               1.8390659025042391E-04
              -3.6910269438070837E-05
              -1.9599321867891182E-03
              -2.2749513527880105E-03
              -2.2838605157697255E-03
               2.4240298661300907E-03
              -1.6564754036983678E-03
               2.1193637229340936E-03
               2.1211560979045944E-04
              -8.0924144399038421E-04
               1.6648026403429973E-03
               4.5751382082437152E-04
              -1.6277784255980139E-03
              -3.6442530664284462E-04
              -5.8200497313935936E-04
              -7.6257268264895580E-04
              -1.2064739483266208E-03
              -8.2957006187866556E-05
              -4.4557887561376771E-04
              -2.4152053814160940E-04
              -1.1957122146778077E-03
               2.1707113433457981E-04
               1.1702750769203511E-03
               1.3665880251833081E-03
               3.0372384484175547E-04
               1.4105443823211425E-03
              -6.4778567068055591E-04
               1.1252566337704084E-03
              -1.5132258775135400E-04
              -3.2529753317428901E-04
               1.7269913230109270E-03
               8.7803361585398116E-04
              -5.9211482712794332E-04
               9.2085393679156003E-04
              -6.3757989934884278E-04
               1.0093275533284266E-04
               2.6312363247245953E-04
              -3.7823034860776577E-04
               1.3026756710669480E-03
               1.5945363835009770E-03
               4.3537135718995923E-03
               2.2183891653828198E-04
              -2.0953863712550280E-05
              -5.8483332133266482E-05
              -4.7935533924446666E-04
              -3.7924123297586668E-04
               2.1821480858561876E-04
               8.8192536028055288E-05
              -8.8105159046227054E-04
              -1.4950972077180213E-03
              -7.3302952655463676E-04
              -6.5750421443181871E-04
               1.8498452067572013E-03
               3.3550887674078248E-03
              -2.6112801202285382E-03
               4.9906614534435271E-04
              -7.1984353667360005E-04
               1.4883682248373947E-03
              -4.5306926552073274E-04
              -1.5239973562735025E-03
               5.8262103042912858E-04
               3.1738089378936145E-04
              -6.8680619406963047E-04
               1.7519654611489706E-04
              -5.2817238499247338E-04
               1.0234472642612941E-03
               1.7951150785282610E-04
              -5.5430667237783198E-04
               1.6407194767525163E-03
              -2.1348120962530267E-04
               9.5406798358192832E-04
               4.5011523703749408E-04
               5.7164887164316792E-04
               3.8992496413233917E-04
               8.5380746403563982E-04
               4.8049321263357125E-04
               1.8000445374703735E-03
               2.7330894422104022E-03
              -7.2350740618501129E-03
               1.5031313511636832E-03
               5.4360376956201571E-04
               5.1817885902582443E-04
              -7.4916276235161494E-05
              -5.2400162180171771E-04
               2.5237404531458889E-03
              -3.2610988927572510E-05
              -1.7468620751017266E-04
              -2.1623585255002202E-03
              -1.2558894415155332E-04
               2.1815117468021914E-03
               1.1377115789135485E-05
               2.5032082129860752E-04
              -3.6494993219480694E-03
              -2.3762074822192445E-03
               2.7152969497593721E-03
              -8.2643088094641495E-04
              -1.5160652006208360E-03
              -8.3664836931279546E-04
              -6.0598404314889394E-05
               2.7035456682535943E-04
               7.2214470205145753E-04
              -3.4913320941222802E-04
               2.5635288737305322E-03
               3.2577355449212503E-04
              -1.3994320951090078E-03
               3.3599936689045570E-04
               1.4090832668572474E-03
               2.1815610058293098E-04
               1.2843574882028365E-03
              -1.3016337580615695E-04
               7.0814220597569053E-04
               9.1749511890176219E-04
              -8.6631175419250742E-04
               4.8637393386697877E-04
              -6.3518597647529138E-04
               8.2827474380374987E-04
              -3.4383598106147928E-05
               2.9781148328225921E-05
               4.5183197447738608E-04
              -3.7817577609503656E-04
               2.9101289887838058E-04
              -8.7416902614305080E-05
              -8.1163684363027005E-04
              -8.3343795939219787E-04
              -1.2347707051478174E-03
               4.4145358294396525E-04
               1.8843688482931844E-03
               1.1376507953888308E-03
               9.8516243899339257E-04
               1.0323030718160211E-03
              -3.2418247720015056E-03
              -1.4780551255303873E-04
               4.1418157626336879E-04
               5.3722047894872089E-04
               3.0957924388422443E-04
               2.2835745555100330E-03
               3.3476939294047411E-04
               2.0446361547023341E-03
              -7.6392207733023162E-04
              -2.8242911559955455E-03
               3.1937020177399034E-03
              -1.2536176308993821E-03
               2.6229149187863995E-03
               3.5978996895933060E-03
               1.9375273669288311E-02
              -9.8595309197497914E-05
               1.1175879082367410E-03
              -1.4052682745249146E-04
               2.1084160952810722E-03
              -5.5894752724202322E-06
              -3.3572105809395523E-03
               6.2367318760015160E-04
              -2.2802693722798941E-03
              -9.4592896245188177E-05
               4.2746360122183918E-05
              -1.0301800528750660E-03
               1.4529851085317387E-04
              -1.3074108803278154E-03
               2.4144985677739044E-03
               1.3440733323032395E-03
              -2.9880515131507237E-04
               1.1995084736936311E-03
              -1.8385374320806771E-03
              -3.5362370906961239E-04
              -2.2400941115673876E-04
               1.4736087110962832E-03
              -2.9086014682933262E-03
               7.1774652127446490E-04
               1.1204418526639540E-03
               7.1235604108679654E-04
               1.2133588816387211E-03
               6.1396488920004036E-04
              -1.0570757929946378E-04
              -6.3016762724682756E-04
               1.5204753435178412E-03
              -4.3496475073722491E-04
               1.4649116910166544E-03
              -1.0717463651570402E-03
              -9.5234551081937844E-05
               8.3243496214295228E-04
              -1.9241109261817612E-04
               4.0136945614896924E-04
               7.7728831705038063E-04
               9.3863586988047110E-04
               3.2697922435059840E-04
              -4.2110807562472334E-04
               1.0483845712550070E-04
               8.3153857946446984E-04
               1.7621725633928053E-03
              -9.8833946882707045E-04
              -5.9729646069385642E-04
               1.2918545832494293E-03
               4.7431640193901974E-05
              -6.1042329409779009E-04
               3.1209716876833812E-04
               1.9006511504905857E-03
               5.1944645725990292E-04
              -9.4846617031957720E-05
              -2.2967684743104354E-03
              -1.7166817604599642E-03
               1.4209473685934480E-03
              -1.7024394518432002E-04
              -1.9112779081263374E-03
              -1.1151700546384959E-03
               2.4054158207692596E-03
               2.2298632685322272E-03
               1.0224586518928699E-04
              -1.4795871572393696E-03
              -7.7936734641339211E-04
               3.7210373583526288E-04
              -5.9535933134542154E-04
              -5.5048459649646134E-04
               7.6425536034944389E-04
               2.7990523282693969E-04
              -1.3794525188358408E-03
               5.6266075590744708E-04
               2.2765408085291452E-04
               3.2255102549333294E-04
               4.8763705242964783E-05
              -1.3739470945632667E-03
               5.7828142171273346E-04
               1.3162149701679028E-03
              -1.2396994821004493E-03
               1.1988354150077878E-03
              -1.8833298819487963E-03
              -9.2468759250673247E-04
               1.4290167163498551E-03
              -6.5942663340385287E-04
               1.2541379937441575E-03
               5.3977866650270073E-03
              -3.0196770681707513E-04
              -2.5237375386812444E-03
              -9.5172374125528851E-04
              -1.3956236396535176E-03
               4.9928957664339586E-03
              -3.5105039727725010E-04
              -4.4142333317084712E-04
              -3.0883844587543420E-04
              -1.0445538065416214E-03
              -1.1419720047424701E-03
               3.5520060956344742E-04
              -3.1839210041085170E-04
              -5.7424767259696056E-05
              -9.6604659887721380E-04
              -2.0590616907218253E-03
               2.1217552383589206E-03
              -3.6061285045059548E-04
              -2.9351253763979418E-06
              -4.6764046221623633E-04
              -2.7137445919586146E-04
               2.7414634114532332E-04
               4.0818494042416187E-03
               4.3507149323323965E-03
              -2.0557761962925540E-04
               4.6443209121717124E-06
               3.4057155274037660E-04
              -1.6280620547101121E-03
               1.8886525734422659E-03
              -6.7222276865259274E-04
               1.0562969727515739E-03
              -1.3736527981958995E-03
              -4.3020614128290186E-04
               1.2442491668205786E-03
              -2.0735760485195739E-04
               1.2635106146415000E-03
               1.9517815893981777E-03
               1.4040991998378713E-04
              -3.4416912570853575E-03
              -1.6527308427740303E-03
               1.0950124432808888E-03
              -5.7022142016714922E-04
              -3.0725957579225182E-03
              -4.5392947253625319E-05
              -1.7911958693549011E-04
               1.0960777086595130E-03
               2.1815894078142242E-04
               1.6348660354362330E-03
               8.9773669219035733E-04
              -3.4611599812235346E-04
               6.7804363821871824E-04
               7.5612750849401306E-04
               3.4542279874073397E-03
              -7.1385855921061005E-04
               1.4270459556670926E-03
              -1.3732272637757832E-03
              -2.3676481779805383E-03
               1.4595447108166455E-03
              -2.0996673238104688E-03
              -4.0438449177560931E-04
               1.5361571802139306E-03
               8.2494057068373912E-04
              -1.0560423152945935E-03
              -1.9009259439616707E-03
               1.1182023079513432E-03
               1.6212572467269142E-03
               1.9081054733386580E-03
               6.9667966339671730E-05
              -1.6974914097113796E-03
              -5.1496990158439188E-04
               4.3653845537330340E-04
              -2.6399180152116702E-04
               1.7147741490935934E-03
               6.7889449289215860E-04
               7.2972009991559045E-04
               4.1005364370179228E-03
               1.0509302961319350E-03
              -4.9546088967671997E-04
              -8.1585027208266306E-04
               4.2326610493703757E-04
              -1.2881965012481059E-03
               1.4421215358784403E-03
              -2.3608211833727058E-03
              -1.0733596997245215E-03
              -7.9360454184602947E-04
               3.2420016779374967E-04
               3.0366994516824522E-04
              -3.4842330203283987E-04
               7.2367278670760641E-05
               9.4490585131831923E-04
              -3.7226100320633161E-04
              -7.7368234757640053E-04
              -1.3423086152778384E-04
              -3.9939223642787508E-03
               4.2893498045340646E-04
               7.4716219482175216E-04
               6.7853818329795886E-04
              -1.5930419825761462E-04
              -1.1001711154603783E-04
               1.3886345952034038E-03
               9.8514856478242627E-04
              -5.3698186794563828E-04
              -2.1245837768883169E-03
               3.7563269540614726E-04
               1.2729160025960295E-04
               8.5361135598656420E-05
              -6.3586501284330021E-04
              -2.2129435045106080E-03
               1.9615142167198111E-03
              -8.5905908558966382E-05
              -1.6176928410605437E-03
               6.0930278045965940E-04
               1.1526748234373381E-03
              -1.3464034982019779E-03
              -1.6919354256130560E-03
               1.4684609960584208E-05
               2.0881880800617951E-04
               7.2858830484620184E-04
               8.3822207876936181E-04
              -2.7024106253135900E-04
              -3.2135021289687281E-03
               2.9127451616927447E-03
               1.7587048549107321E-03
              -4.0845496411954303E-04
               8.0296483602051126E-04
              -3.9524465756492449E-04
              -4.0037310955445458E-04
              -4.5537239175412947E-04
              -7.6485358871414787E-04
              -5.4293444264925557E-03
               2.7281350199766367E-03
              -2.1814197864465792E-04
              -4.6934765293443845E-04
              -5.9160459320320912E-04
               3.0642549598357814E-04
               1.4136218012692923E-03
               1.3693330820557201E-04
              -2.7982240985389821E-04
              -1.8148957984699024E-03
              -1.3228369364415369E-03
              -1.3438971163404450E-03
              -3.5424650809959940E-04
              -5.6336887841020077E-04
              -4.2445442954266115E-04
               6.3761411733349307E-04
               6.6745633741630505E-04
              -4.6860043813869319E-04
              -1.1219041093379054E-03
               2.4132774871505874E-03
              -3.1180978190715868E-03
              -5.3500163661098638E-04
              -3.8324757058298133E-04
               2.5276992202369694E-04
              -1.7992459330201411E-04
               9.9770927063659066E-04
               7.8433571089934074E-04
              -4.5505984841848245E-04
              -4.3071592946322202E-04
              -7.3266323206402180E-04
               5.7316820651152781E-04
              -3.2435862660001495E-03
              -2.7742118065794544E-04
               5.1221082322567115E-04
               2.9701116754903071E-04
              -4.4249181047991321E-04
               6.8254103239674040E-04
               1.5014135726785718E-04
               1.4727974528146923E-03
               1.1778370736170636E-03
              -6.9461443318930276E-04
              -1.1929482851903098E-04
              -1.2986649458199503E-03
               6.3268743909416256E-04
               4.2124143715517641E-04
              -2.2217456442434232E-03
               8.3792248502399607E-05
              -1.2755609920904807E-03
              -7.4831990307801927E-04
              -4.5089061162043281E-04
               8.1401553977008959E-04
              -9.5056194200400295E-04
               3.4462572386402945E-03
               7.4872071702308503E-04
               3.7188124531355123E-03
              -2.9151565406506613E-03
               1.9252602159763375E-03
               6.9135062589839472E-04
               1.8096444287819921E-04
               2.3942883383371792E-06
               4.5778446419414084E-04
               4.7578317755096587E-04
               1.3628120180265893E-03
              -8.7417441940005280E-04
              -1.2734711403148400E-04
               3.0921618441699449E-04
              -3.1158403919871037E-03
              -1.5340094047971789E-03
               3.0420090253718531E-03
              -1.6882743805586519E-03
              -1.7881911415292134E-03
              -5.2273246633984929E-05
               1.5703817663912628E-03
               1.1901180999443393E-03
              -3.9080630698696216E-04
               9.9937560106786892E-04
               1.0858238223583174E-03
               2.0308217305343163E-04
               4.3552543602318091E-04
               1.1727631184454002E-03
               1.9063365070503540E-04
               3.2246434368243143E-04
              -5.8963284316986301E-04
               1.3799944206694427E-03
               2.9197585659704122E-03
              -5.4894601337643399E-04
               1.9345864971953663E-03
               3.6540556160457320E-03
              -7.0872610471950099E-05
              -7.9105152688693846E-04
              -1.8073812575397637E-03
              -1.7554009676063109E-03
               7.2903285496973206E-05
               4.7679888724787344E-04
               1.1591910540460841E-04
              -4.5081694017370672E-04
              -7.2724846302070956E-04
              -8.9521504690675603E-04
               1.3008971704282749E-03
               1.2594281502046828E-03
               3.7898773628931848E-03
               1.7825414813196199E-03
              -4.9760094653679031E-04
               5.7629235050501396E-04
               2.5378288832897866E-04
               6.8426866294904638E-05
               8.7688719497138509E-04
               1.0190678874873139E-03
               5.2295280689175559E-04
              -2.0374305941726115E-03
               1.1107442984853439E-04
               1.7099979711022941E-05
               1.6099689204634402E-04
              -3.2699080543561164E-04
               6.5054052979889390E-04
               1.1822900706775329E-04
               3.6197192166398102E-04
              -3.6507835186549839E-03
               1.9463385182847922E-03
              -8.9765491753341915E-04
              -4.4898719355295755E-04
               2.2256152481282977E-03
               1.5608301519394136E-03
               1.0330486628827375E-04
               3.0280151313151547E-04
               4.6894216616135906E-04
               7.2104019589588116E-04
              -2.2565487885627699E-03
               2.8754490290500232E-04
               1.9048035261060866E-04
               1.6686046701135954E-03
               1.0438302868258325E-03
               2.1244745120339230E-03
              -1.2585854815890577E-03
               8.7341149544817613E-04
              -1.1770303054256066E-03
               8.0436649190232772E-04
              -1.2893775896747396E-03
               8.9351317038293299E-04
               1.3582531552930479E-04
              -2.9331113404124461E-04
               5.8072775334438705E-04
               3.7480419465656459E-04
              -1.0148833267803121E-03
              -2.3093469023098562E-04
              -2.6953050272672491E-03
              -5.3511942573137574E-04
              -4.8813371010664912E-04
              -5.6477084424416874E-04
              -2.0321132629448043E-03
              -4.2229525476381572E-04
              -2.6763895108819420E-04
               1.0662775520548554E-03
               1.1076125920847918E-03
               1.0985457607093840E-03
              -8.9477885124894627E-04
              -5.4820876642841716E-04
              -6.1085864993704075E-04
              -4.0411220911308019E-04
              -4.0139327244439055E-03
               3.4495330898376285E-03
               5.0411149653021485E-04
               4.2098344819771483E-03
               2.3401920754827789E-03
               8.7451322026905337E-04
               1.2252265503283734E-03
              -4.0243702454937312E-04
               1.0495438739505009E-03
               5.9008559918324259E-04
               6.9148968319341576E-05
              -1.1458954616707113E-03
              -1.4160471264383103E-03
               6.5836940052602978E-06
               4.9516716252161284E-04
              -8.0807112221231107E-04
               1.9119724043707722E-03
               9.4143341354160383E-04
              -2.4853815522134898E-04
               2.7665320318761713E-03
              -1.4644753263173206E-03
               2.2680167231871710E-03
              -2.5781928641382642E-04
               5.8211413660040840E-04
         &END THERMOSTAT_ENERGY
         &RNG_INIT
Wiener process for Thermostat # 1        1 F T T   2.5407941214855106E-01         218861964.0         721231786.0        2712581128.0         366974123.0        1083304653.0        2236271499.0             12345.0             12345.0             12345.0             12345.0             12345.0             12345.0             12345.0             12345.0             12345.0             12345.0             12345.0             12345.0
Wiener process for Thermostat # 2        1 F T T  -2.6266234694881768E-01        1229366627.0        2320481442.0        3350599956.0        1178206910.0         363445192.0        2356678286.0        3692455944.0        1366884236.0        2968912127.0         335948734.0        4161675175.0         475798818.0        3692455944.0        1366884236.0        2968912127.0         335948734.0        4161675175.0         475798818.0
Wiener process for Thermostat # 3        1 F T T  -1.5427778664229755E-01        4239153764.0        2954913742.0         242131463.0        2311061989.0        1603860360.0        1373447015.0        1015873554.0        1310354410.0        2249465273.0         994084013.0        2912484720.0        3876682925.0        1015873554.0        1310354410.0        2249465273.0         994084013.0        2912484720.0        3876682925.0
Wiener process for Thermostat # 4        1 F T T   1.8968241918271846E+00        4173469320.0        3656803844.0        3020166179.0        1452798455.0         685481547.0        3337774523.0        2338701263.0        1119171942.0        2570676563.0         317077452.0        3194180850.0         618832124.0        2338701263.0        1119171942.0        2570676563.0         317077452.0        3194180850.0         618832124.0
Wiener process for Thermostat # 5        1 F T T  -9.5849172727768162E-01        4241969781.0         406874259.0        2213697391.0        2411294880.0        3762245724.0        1152975069.0        1597262096.0        3906379055.0        3312112953.0        1016013135.0        4099474108.0         275305423.0        1597262096.0        3906379055.0        3312112953.0        1016013135.0        4099474108.0         275305423.0
Wiener process for Thermostat # 6        1 F T T  -4.9000413269124626E-01        2823529846.0        2594312144.0        1404084829.0          32727902.0        2031246881.0        4138976339.0          97147054.0        3131372450.0         829345164.0        3691032523.0        3006063034.0        4259826321.0          97147054.0        3131372450.0         829345164.0        3691032523.0        3006063034.0        4259826321.0
Wiener process for Thermostat # 7        1 F T T  -1.5858176518399703E-01          98670582.0        1826754128.0        3785296456.0        1632747220.0        1239229616.0        3538311645.0         796079799.0        2105258207.0         955365076.0        2923159030.0        4116632677.0        3067683584.0         796079799.0        2105258207.0         955365076.0        2923159030.0        4116632677.0        3067683584.0
Wiener process for Thermostat # 8        1 F T T   4.6805677772604370E-01         843498503.0        2729519600.0        4082323590.0        2027406298.0        3301073927.0         710011024.0        3281794178.0        2616230133.0        1457051261.0        2762791137.0        2480527362.0        2282316169.0        3281794178.0        2616230133.0        1457051261.0        2762791137.0        2480527362.0        2282316169.0
Wiener process for Thermostat # 9        1 F T T  -3.1177311699467075E-01        3167040314.0        3993127044.0        4073741743.0        3717293272.0        3405672925.0        1291894706.0        3777646647.0        1837464056.0        4204654757.0         664239048.0        4190510072.0        2959195122.0        3777646647.0        1837464056.0        4204654757.0         664239048.0        4190510072.0        2959195122.0
Wiener process for Thermostat # 10       1 F T T  -1.1736336656620774E+00        3604607837.0         585266994.0        2651718275.0         306500314.0        4254594554.0          89622088.0        4215590817.0        3862461878.0        1087200967.0        1544910132.0         936383720.0        1611370123.0        4215590817.0        3862461878.0        1087200967.0        1544910132.0         936383720.0        1611370123.0
Wiener process for Thermostat # 11       1 F T T  -9.0019940503874030E-01        2898298424.0         365897834.0        2471251332.0        2273531977.0        2926243218.0        3363307550.0        1683636369.0         362165168.0         814316280.0         869382050.0         980203903.0        2062101717.0        1683636369.0         362165168.0         814316280.0         869382050.0         980203903.0        2062101717.0
Wiener process for Thermostat # 12       1 F T T  -1.2895158969765455E+00         267581824.0        2573189450.0        1678546986.0        3192590565.0        1807685091.0        1558312379.0         272317999.0         166758548.0         310112982.0         201045826.0        1680231254.0         118290799.0         272317999.0         166758548.0         310112982.0         201045826.0        1680231254.0         118290799.0
Wiener process for Thermostat # 13       1 F T T  -4.1111272346448739E-03        1653154356.0        3038053880.0         411133810.0          42780908.0         901953056.0        3609677496.0        2245755202.0        1652682525.0        2865544364.0         721509566.0         209733568.0         592362218.0        2245755202.0        1652682525.0        2865544364.0         721509566.0         209733568.0         592362218.0